3
Lattice="6.35016 0.0 0.0 0.0 6.35016 0.0 0.0 0.0 6.35016" Properties=species:S:1:pos:R:3 pbc="T T T"
O        0.00000000       0.00000000       0.00000000
H        0.58209802       5.59343258       0.00000000
H        0.58209802       0.75672742       0.00000000
3
Lattice="6.35016 0.0 0.0 0.0 6.35016 0.0 0.0 0.0 6.35016" Properties=species:S:1:pos:R:3 pbc="T T T"
O        0.00143666       6.34165561       6.34971943
H        0.57883544       5.58355052       0.01170588
H        0.56568292       0.78681791       0.03462075
3
Lattice="6.35016 0.0 0.0 0.0 6.35016 0.0 0.0 0.0 6.35016" Properties=species:S:1:pos:R:3 pbc="T T T"
O        0.00275978       6.33329163       6.34927434
H        0.57735477       5.57216354       0.02345482
H        0.54931564       0.81609939       0.06921363
3
Lattice="6.35016 0.0 0.0 0.0 6.35016 0.0 0.0 0.0 6.35016" Properties=species:S:1:pos:R:3 pbc="T T T"
O        0.00401902       6.32519454       6.34883174
H        0.57789148       5.55971488       0.03533445
H        0.53195278       0.84217092       0.10363398
3
Lattice="6.35016 0.0 0.0 0.0 6.35016 0.0 0.0 0.0 6.35016" Properties=species:S:1:pos:R:3 pbc="T T T"
O        0.00525679       6.31744912       6.34840221
H        0.58044165       5.54685809       0.04744211
H        0.51291957       0.86303431       0.13761737
3
Lattice="6.35016 0.0 0.0 0.0 6.35016 0.0 0.0 0.0 6.35016" Properties=species:S:1:pos:R:3 pbc="T T T"
O        0.00650682       6.31009951       6.34799809
H        0.58480452       5.53437939       0.05987115
H        0.49188485       0.87720069       0.17086464
3
Lattice="6.35016 0.0 0.0 0.0 6.35016 0.0 0.0 0.0 6.35016" Properties=species:S:1:pos:R:3 pbc="T T T"
O        0.00779438       6.30315434       6.34763283
H        0.59063575       5.52311103       0.07269911
H        0.46878018       0.88368973       0.20309577
3
Lattice="6.35016 0.0 0.0 0.0 6.35016 0.0 0.0 0.0 6.35016" Properties=species:S:1:pos:R:3 pbc="T T T"
O        0.00913667       6.29659589       6.34731799
H        0.59752034       5.51384513       0.08598066
H        0.44374416       0.88199417       0.23407344
3
Lattice="6.35016 0.0 0.0 0.0 6.35016 0.0 0.0 0.0 6.35016" Properties=species:S:1:pos:R:3 pbc="T T T"
O        0.01054209       6.29038518       6.34706112
H        0.60503010       5.50725487       0.09974641
H        0.41706790       0.87205744       0.26363604
3
Lattice="6.35016 0.0 0.0 0.0 6.35016 0.0 0.0 0.0 6.35016" Properties=species:S:1:pos:R:3 pbc="T T T"
O        0.01200923       6.28446569       6.34686452
H        0.61277310       5.50383747       0.11400868
H        0.38916587       0.85427356       0.29173848
3
Lattice="6.35016 0.0 0.0 0.0 6.35016 0.0 0.0 0.0 6.35016" Properties=species:S:1:pos:R:3 pbc="T T T"
O        0.01352552       6.27876572       6.34672120
H        0.62042524       5.50388173       0.12876575
H        0.36056380       0.82952070       0.31848840
3
Lattice="6.35016 0.0 0.0 0.0 6.35016 0.0 0.0 0.0 6.35016" Properties=species:S:1:pos:R:3 pbc="T T T"
O        0.01506645       6.27319200       6.34661248
H        0.62775129       5.50744690       0.14400728
H        0.33188705       0.79921367       0.34420731
3
Lattice="6.35016 0.0 0.0 0.0 6.35016 0.0 0.0 0.0 6.35016" Properties=species:S:1:pos:R:3 pbc="T T T"
O        0.01659557       6.26763205       6.34650053
H        0.63463296       5.51434610       0.15971999
H        0.30383407       0.76534579       0.36950565
3
Lattice="6.35016 0.0 0.0 0.0 6.35016 0.0 0.0 0.0 6.35016" Properties=species:S:1:pos:R:3 pbc="T T T"
O        0.01806735       6.26195526       6.34632736
H        0.64108123       5.52415367       0.17589308
H        0.27712524       0.73042265       0.39532775
3
Lattice="6.35016 0.0 0.0 0.0 6.35016 0.0 0.0 0.0 6.35016" Properties=species:S:1:pos:R:3 pbc="T T T"
O        0.01943244       6.25603050       6.34601563
H        0.64725530       5.53621370       0.19252726
H        0.25239143       0.69720235       0.42290808
3
Lattice="6.35016 0.0 0.0 0.0 6.35016 0.0 0.0 0.0 6.35016" Properties=species:S:1:pos:R:3 pbc="T T T"
O        0.02064843       6.24975343       6.34548266
H        0.65345636       5.54968988       0.20963612
H        0.23000889       0.66818244       0.45355383
3
Lattice="6.35016 0.0 0.0 0.0 6.35016 0.0 0.0 0.0 6.35016" Properties=species:S:1:pos:R:3 pbc="T T T"
O        0.02169031       6.24308779       6.34466565
H        0.66010472       5.56363820       0.22725089
H        0.20995089       0.64491469       0.48823783
3
Lattice="6.35016 0.0 0.0 0.0 6.35016 0.0 0.0 0.0 6.35016" Properties=species:S:1:pos:R:3 pbc="T T T"
O        0.02255742       6.23608407       6.34355107
H        0.66766763       5.57712315       0.24540619
H        0.19176258       0.62752776       0.52714412
3
Lattice="6.35016 0.0 0.0 0.0 6.35016 0.0 0.0 0.0 6.35016" Properties=species:S:1:pos:R:3 pbc="T T T"
O        0.02327086       6.22886845       6.34218788
H        0.67655640       5.58935419       0.26411154
H        0.17469303       0.61480135       0.56948127
3
Lattice="6.35016 0.0 0.0 0.0 6.35016 0.0 0.0 0.0 6.35016" Properties=species:S:1:pos:R:3 pbc="T T T"
O        0.02386714       6.22159885       6.34067769
H        0.68700794       5.59981138       0.28330674
H        0.15792276       0.60472758       0.61368689
3
Lattice="6.35016 0.0 0.0 0.0 6.35016 0.0 0.0 0.0 6.35016" Properties=species:S:1:pos:R:3 pbc="T T T"
O        0.02439192       6.21442069       6.33915181
H        0.69899418       5.60830992       0.30281868
H        0.14074812       0.59517300       0.65783181
3
Lattice="6.35016 0.0 0.0 0.0 6.35016 0.0 0.0 0.0 6.35016" Properties=species:S:1:pos:R:3 pbc="T T T"
O        0.02489669       6.20743914       6.33774779
H        0.71219807       5.61498166       0.32233660
H        0.12266033       0.58431943       0.70002386
3
Lattice="6.35016 0.0 0.0 0.0 6.35016 0.0 0.0 0.0 6.35016" Properties=species:S:1:pos:R:3 pbc="T T T"
O        0.02543576       6.20071426       6.33659447
H        0.72606263       5.62019196       0.34142391
H        0.10334542       0.57083366       0.73862978
3
Lattice="6.35016 0.0 0.0 0.0 6.35016 0.0 0.0 0.0 6.35016" Properties=species:S:1:pos:R:3 pbc="T T T"
O        0.02606271       6.19426872       6.33580413
H        0.73989874       5.62441844       0.35956276
H        0.08265038       0.55386483       0.77236590
3
Lattice="6.35016 0.0 0.0 0.0 6.35016 0.0 0.0 0.0 6.35016" Properties=species:S:1:pos:R:3 pbc="T T T"
O        0.02682479       6.18809909       6.33546941
H        0.75300051       5.62814484       0.37620964
H        0.06052801       0.53297026       0.80030565
3
Lattice="6.35016 0.0 0.0 0.0 6.35016 0.0 0.0 0.0 6.35016" Properties=species:S:1:pos:R:3 pbc="T T T"
O        0.02775941       6.18218804       6.33565979
H        0.76473656       5.63178685       0.39084651
H        0.03699838       0.50802455       0.82184018
3
Lattice="6.35016 0.0 0.0 0.0 6.35016 0.0 0.0 0.0 6.35016" Properties=species:S:1:pos:R:3 pbc="T T T"
O        0.02889412       6.17650764       6.33642168
H        0.77461563       5.63564698       0.40302351
H        0.01212011       0.47917456       0.83668197
3
Lattice="6.35016 0.0 0.0 0.0 6.35016 0.0 0.0 0.0 6.35016" Properties=species:S:1:pos:R:3 pbc="T T T"
O        0.03024422       6.17102338       6.33777662
H        0.78232828       5.63989537       0.41238631
H        6.33612100       0.44679351       0.84484891
3
Lattice="6.35016 0.0 0.0 0.0 6.35016 0.0 0.0 0.0 6.35016" Properties=species:S:1:pos:R:3 pbc="T T T"
O        0.03181221       6.16569757       6.33971723
H        0.78777285       5.64456337       0.41870072
H        6.30873429       0.41146871       0.84669388
3
Lattice="6.35016 0.0 0.0 0.0 6.35016 0.0 0.0 0.0 6.35016" Properties=species:S:1:pos:R:3 pbc="T T T"
O        0.03359146       6.16048510       6.34220509
H        0.79105245       5.64955987       0.42185961
H        6.28012434       0.37399725       0.84294316
3
Lattice="6.35016 0.0 0.0 0.0 6.35016 0.0 0.0 0.0 6.35016" Properties=species:S:1:pos:R:3 pbc="T T T"
O        0.03556763       6.15533563       6.34516535
H        0.79248193       5.65468133       0.42189733
H        6.25020454       0.33539100       0.83476073
3
Lattice="6.35016 0.0 0.0 0.0 6.35016 0.0 0.0 0.0 6.35016" Properties=species:S:1:pos:R:3 pbc="T T T"
O        0.03772186       6.15019308       6.34848489
H        0.79257928       5.65963008       0.41899632
H        6.21876211       0.29684413       0.82377336
3
Lattice="6.35016 0.0 0.0 0.0 6.35016 0.0 0.0 0.0 6.35016" Properties=species:S:1:pos:R:3 pbc="T T T"
O        0.04003439       6.14499992       0.00185533
H        0.79204276       5.66403791       0.41349016
H        6.18541628       0.25965093       0.81201699
3
Lattice="6.35016 0.0 0.0 0.0 6.35016 0.0 0.0 0.0 6.35016" Properties=species:S:1:pos:R:3 pbc="T T T"
O        0.04248714       6.13970547       0.00542824
H        0.79170201       5.66750345       0.40585663
H        6.14962728       0.22502135       0.80170306
3
Lattice="6.35016 0.0 0.0 0.0 6.35016 0.0 0.0 0.0 6.35016" Properties=species:S:1:pos:R:3 pbc="T T T"
O        0.04506061       6.13428091       0.00888489
H        0.79244218       5.66963456       0.39669513
H        6.11082126       0.19380866       0.79476920
3
Lattice="6.35016 0.0 0.0 0.0 6.35016 0.0 0.0 0.0 6.35016" Properties=species:S:1:pos:R:3 pbc="T T T"
O        0.04772577       6.12873202       0.01211363
H        0.79509617       5.67010200       0.38668283
H        6.06863525       0.16625360       0.79232286
3
Lattice="6.35016 0.0 0.0 0.0 6.35016 0.0 0.0 0.0 6.35016" Properties=species:S:1:pos:R:3 pbc="T T T"
O        0.05043342       6.12310216       0.01507718
H        0.80030933       5.66869855       0.37650721
H        6.02320690       0.14187369       0.79426836
3
Lattice="6.35016 0.0 0.0 0.0 6.35016 0.0 0.0 0.0 6.35016" Properties=species:S:1:pos:R:3 pbc="T T T"
O        0.05311318       6.11745909       0.01781321
H        0.80841061       5.66538878       0.36678797
H        5.97533876       0.11961473       0.79938945
3
Lattice="6.35016 0.0 0.0 0.0 6.35016 0.0 0.0 0.0 6.35016" Properties=species:S:1:pos:R:3 pbc="T T T"
O        0.05568379       6.11187387       0.02040853
H        0.81931860       5.66034326       0.35800500
H        5.92640614       0.09818382       0.80581829
3
Lattice="6.35016 0.0 0.0 0.0 6.35016 0.0 0.0 0.0 6.35016" Properties=species:S:1:pos:R:3 pbc="T T T"
O        0.05807151       6.10639952       0.02296758
H        0.83252661       5.65392674       0.35046330
H        5.87810079       0.07635439       0.81158868
3
Lattice="6.35016 0.0 0.0 0.0 6.35016 0.0 0.0 0.0 6.35016" Properties=species:S:1:pos:R:3 pbc="T T T"
O        0.06022276       6.10106583       0.02558505
H        0.84718380       5.64664800       0.34430942
H        5.83212804       0.05315268       0.81503415
3
Lattice="6.35016 0.0 0.0 0.0 6.35016 0.0 0.0 0.0 6.35016" Properties=species:S:1:pos:R:3 pbc="T T T"
O        0.06210926       6.09587775       0.02833473
H        0.86221583       5.63908902       0.33956725
H        5.79002064       0.02790356       0.81493908
3
Lattice="6.35016 0.0 0.0 0.0 6.35016 0.0 0.0 0.0 6.35016" Properties=species:S:1:pos:R:3 pbc="T T T"
O        0.06372417       6.09082410       0.03126762
H        0.87649258       5.63181542       0.33619658
H        5.75302385       0.00021025       0.81055322
3
Lattice="6.35016 0.0 0.0 0.0 6.35016 0.0 0.0 0.0 6.35016" Properties=species:S:1:pos:R:3 pbc="T T T"
O        0.06507593       6.08588565       0.03440815
H        0.88895204       5.62531902       0.33412904
H        5.72206485       6.32006494       0.80152412
3
Lattice="6.35016 0.0 0.0 0.0 6.35016 0.0 0.0 0.0 6.35016" Properties=species:S:1:pos:R:3 pbc="T T T"
O        0.06618353       6.08103793       0.03776161
H        0.89869534       5.61997288       0.33330186
H        5.69774031       6.28714831       0.78783895
3
Lattice="6.35016 0.0 0.0 0.0 6.35016 0.0 0.0 0.0 6.35016" Properties=species:S:1:pos:R:3 pbc="T T T"
O        0.06707172       6.07625893       0.04131503
H        0.90505465       5.61600968       0.33366814
H        5.68031178       6.25175271       0.76976779
3
Lattice="6.35016 0.0 0.0 0.0 6.35016 0.0 0.0 0.0 6.35016" Properties=species:S:1:pos:R:3 pbc="T T T"
O        0.06777291       6.07152876       0.04503483
H        0.90762608       5.61351051       0.33520678
H        5.66966758       6.21411278       0.74786653
3
Lattice="6.35016 0.0 0.0 0.0 6.35016 0.0 0.0 0.0 6.35016" Properties=species:S:1:pos:R:3 pbc="T T T"
O        0.06832817       6.06683339       0.04886753
H        0.90628677       5.61240895       0.33792408
H        5.66527613       6.17452766       0.72297105
3
Lattice="6.35016 0.0 0.0 0.0 6.35016 0.0 0.0 0.0 6.35016" Properties=species:S:1:pos:R:3 pbc="T T T"
O        0.06879103       6.06216602       0.05273973
H        0.90121909       5.61248655       0.34186264
H        5.66610603       6.13332090       0.69622703
3
Lattice="6.35016 0.0 0.0 0.0 6.35016 0.0 0.0 0.0 6.35016" Properties=species:S:1:pos:R:3 pbc="T T T"
O        0.06923040       6.05752964       0.05655510
H        0.89291187       5.61338065       0.34710133
H        5.67056245       6.09079838       0.66909686
3
Lattice="6.35016 0.0 0.0 0.0 6.35016 0.0 0.0 0.0 6.35016" Properties=species:S:1:pos:R:3 pbc="T T T"
O        0.06973066       6.05294292       0.06019818
H        0.88216785       5.61459030       0.35376741
H        5.67649521       6.04716491       0.64330505
3
Lattice="6.35016 0.0 0.0 0.0 6.35016 0.0 0.0 0.0 6.35016" Properties=species:S:1:pos:R:3 pbc="T T T"
O        0.07038098       6.04844275       0.06354605
H        0.87006870       5.61549919       0.36204199
H        5.68140058       6.00244423       0.62063663
3
Lattice="6.35016 0.0 0.0 0.0 6.35016 0.0 0.0 0.0 6.35016" Properties=species:S:1:pos:R:3 pbc="T T T"
O        0.07125089       6.04408457       0.06649106
H        0.85789169       5.61542185       0.37215767
H        5.68289439       5.95643935       0.60258173
3
Lattice="6.35016 0.0 0.0 0.0 6.35016 0.0 0.0 0.0 6.35016" Properties=species:S:1:pos:R:3 pbc="T T T"
O        0.07235633       6.03993144       0.06897099
H        0.84694745       5.61368470       0.38437144
H        5.67940054       5.90882217       0.58988281
3
Lattice="6.35016 0.0 0.0 0.0 6.35016 0.0 0.0 0.0 6.35016" Properties=species:S:1:pos:R:3 pbc="T T T"
O        0.07364027       6.03603187       0.07099041
H        0.83835320       5.60974290       0.39889806
H        5.67070869       5.85936636       0.58225093
3
Lattice="6.35016 0.0 0.0 0.0 6.35016 0.0 0.0 0.0 6.35016" Properties=species:S:1:pos:R:3 pbc="T T T"
O        0.07498542       6.03239736       0.07262062
H        0.83278970       5.60330670       0.41581972
H        5.65800653       5.80817708       0.57846427
3
Lattice="6.35016 0.0 0.0 0.0 6.35016 0.0 0.0 0.0 6.35016" Properties=species:S:1:pos:R:3 pbc="T T T"
O        0.07625577       6.02899151       0.07397816
H        0.83033714       5.59443248       0.43500025
H        5.64338567       5.75578077       0.57679367
3
Lattice="6.35016 0.0 0.0 0.0 6.35016 0.0 0.0 0.0 6.35016" Properties=species:S:1:pos:R:3 pbc="T T T"
O        0.07733854       6.02573528       0.07519777
H        0.83048231       5.58353020       0.45604639
H        5.62916398       5.70302669       0.57547614
3
Lattice="6.35016 0.0 0.0 0.0 6.35016 0.0 0.0 0.0 6.35016" Properties=species:S:1:pos:R:3 pbc="T T T"
O        0.07816533       6.02252254       0.07641205
H        0.83227381       5.57129167       0.47833253
H        5.61739624       5.65092274       0.57301342
3
Lattice="6.35016 0.0 0.0 0.0 6.35016 0.0 0.0 0.0 6.35016" Properties=species:S:1:pos:R:3 pbc="T T T"
O        0.07870960       6.01923767       0.07773898
H        0.83457295       5.55855236       0.50109252
H        5.60963546       5.60047872       0.56829392
3
Lattice="6.35016 0.0 0.0 0.0 6.35016 0.0 0.0 0.0 6.35016" Properties=species:S:1:pos:R:3 pbc="T T T"
O        0.07897751       6.01577010       0.07927559
H        0.83627467       5.54616980       0.52351900
H        5.60690946       5.55260296       0.56056761
3
Lattice="6.35016 0.0 0.0 0.0 6.35016 0.0 0.0 0.0 6.35016" Properties=species:S:1:pos:R:3 pbc="T T T"
O        0.07898901       6.01202300       0.08109764
H        0.83647051       5.53492443       0.54485890
H        5.60979427       5.50807233       0.54937425
3
Lattice="6.35016 0.0 0.0 0.0 6.35016 0.0 0.0 0.0 6.35016" Properties=species:S:1:pos:R:3 pbc="T T T"
O        0.07877450       6.00791768       0.08325828
H        0.83451434       5.52546675       0.56447360
H        5.61846142       5.46749297       0.53449849
3
Lattice="6.35016 0.0 0.0 0.0 6.35016 0.0 0.0 0.0 6.35016" Properties=species:S:1:pos:R:3 pbc="T T T"
O        0.07836529       6.00339630       0.08578990
H        0.83005393       5.51829406       0.58187386
H        5.63274845       5.43129280       0.51591221
3
Lattice="6.35016 0.0 0.0 0.0 6.35016 0.0 0.0 0.0 6.35016" Properties=species:S:1:pos:R:3 pbc="T T T"
O        0.07779556       5.99842496       0.08870418
H        0.82302671       5.51374410       0.59674295
H        5.65217219       5.39969326       0.49375034
3
Lattice="6.35016 0.0 0.0 0.0 6.35016 0.0 0.0 0.0 6.35016" Properties=species:S:1:pos:R:3 pbc="T T T"
O        0.07710206       5.99299277       0.09199191
H        0.81365375       5.51199578       0.60894548
H        5.67593627       5.37266038       0.46828906
3
Lattice="6.35016 0.0 0.0 0.0 6.35016 0.0 0.0 0.0 6.35016" Properties=species:S:1:pos:R:3 pbc="T T T"
O        0.07632321       5.98712027       0.09562325
H        0.80243232       5.51307118       0.61854978
H        5.70290908       5.34985416       0.43993470
3
Lattice="6.35016 0.0 0.0 0.0 6.35016 0.0 0.0 0.0 6.35016" Properties=species:S:1:pos:R:3 pbc="T T T"
O        0.07550537       5.98085971       0.09954803
H        0.79011059       5.51684254       0.62583494
H        5.73161936       5.33055697       0.40920914
3
Lattice="6.35016 0.0 0.0 0.0 6.35016 0.0 0.0 0.0 6.35016" Properties=species:S:1:pos:R:3 pbc="T T T"
O        0.07469909       5.97430063       0.10369665
H        0.77768200       5.52302912       0.63130814
H        5.76026538       5.31360732       0.37671575
3
Lattice="6.35016 0.0 0.0 0.0 6.35016 0.0 0.0 0.0 6.35016" Properties=species:S:1:pos:R:3 pbc="T T T"
O        0.07395796       5.96756896       0.10798561
H        0.76632035       5.53121987       0.63569051
H        5.78681603       5.29741231       0.34306758
3
Lattice="6.35016 0.0 0.0 0.0 6.35016 0.0 0.0 0.0 6.35016" Properties=species:S:1:pos:R:3 pbc="T T T"
O        0.07332866       5.96081264       0.11232709
H        0.75728439       5.54090259       0.63987355
H        5.80926385       5.28010876       0.30877342
3
Lattice="6.35016 0.0 0.0 0.0 6.35016 0.0 0.0 0.0 6.35016" Properties=species:S:1:pos:R:3 pbc="T T T"
O        0.07283640       5.95417691       0.11664298
H        0.75176160       5.55152660       0.64482160
H        5.82602573       5.25993811       0.27410974
3
Lattice="6.35016 0.0 0.0 0.0 6.35016 0.0 0.0 0.0 6.35016" Properties=species:S:1:pos:R:3 pbc="T T T"
O        0.07246872       5.94776344       0.12087879
H        0.75065260       5.56258503       0.65141218
H        5.83639694       5.23578357       0.23906638
3
Lattice="6.35016 0.0 0.0 0.0 6.35016 0.0 0.0 0.0 6.35016" Properties=species:S:1:pos:R:3 pbc="T T T"
O        0.07217401       5.94160004       0.12500988
H        0.75436364       5.57369844       0.66025192
H        5.84079570       5.20758689       0.20343341
3
Lattice="6.35016 0.0 0.0 0.0 6.35016 0.0 0.0 0.0 6.35016" Properties=species:S:1:pos:R:3 pbc="T T T"
O        0.07187670       5.93563362       0.12903830
H        0.76267428       5.58467310       0.67152542
H        5.84065345       5.17638309       0.16699625
3
Lattice="6.35016 0.0 0.0 0.0 6.35016 0.0 0.0 0.0 6.35016" Properties=species:S:1:pos:R:3 pbc="T T T"
O        0.07150306       5.92975432       0.13298353
H        0.77474994       5.59549575       0.68495232
H        5.83798804       5.14394749       0.12972831
3
Lattice="6.35016 0.0 0.0 0.0 6.35016 0.0 0.0 0.0 6.35016" Properties=species:S:1:pos:R:3 pbc="T T T"
O        0.07100184       5.92383039       0.13687287
H        0.78929739       5.60626587       0.69986129
H        5.83490776       5.11228064       0.09186091
3
Lattice="6.35016 0.0 0.0 0.0 6.35016 0.0 0.0 0.0 6.35016" Properties=species:S:1:pos:R:3 pbc="T T T"
O        0.07034942       5.91773982       0.14073415
H        0.80480734       5.61711074       0.71535422
H        5.83328327       5.08321481       0.05385018
3
Lattice="6.35016 0.0 0.0 0.0 6.35016 0.0 0.0 0.0 6.35016" Properties=species:S:1:pos:R:3 pbc="T T T"
O        0.06954803       5.91138566       0.14459105
H        0.81977308       5.62811423       0.73046741
H        5.83459038       5.05820483       0.01628321
3
Lattice="6.35016 0.0 0.0 0.0 6.35016 0.0 0.0 0.0 6.35016" Properties=species:S:1:pos:R:3 pbc="T T T"
O        0.06861405       5.90470409       0.14845976
H        0.83286584       5.63927877       0.74430987
H        5.83988750       5.03828356       6.32994287
3
Lattice="6.35016 0.0 0.0 0.0 6.35016 0.0 0.0 0.0 6.35016" Properties=species:S:1:pos:R:3 pbc="T T T"
O        0.06757148       5.89766036       0.15234923
H        0.84303467       5.65051137       0.75614848
H        5.84985941       5.02407863       6.29511745
3
Lattice="6.35016 0.0 0.0 0.0 6.35016 0.0 0.0 0.0 6.35016" Properties=species:S:1:pos:R:3 pbc="T T T"
O        0.06644293       5.89025011       0.15626004
H        0.84954346       5.66164003       0.76544397
H        5.86486039       5.01585098       6.26249655
3
Lattice="6.35016 0.0 0.0 0.0 6.35016 0.0 0.0 0.0 6.35016" Properties=species:S:1:pos:R:3 pbc="T T T"
O        0.06525075       5.88249193       0.16018729
H        0.85197207       5.67243600       0.77186119
H        5.88496068       5.01351857       6.23249890
3
Lattice="6.35016 0.0 0.0 0.0 6.35016 0.0 0.0 0.0 6.35016" Properties=species:S:1:pos:R:3 pbc="T T T"
O        0.06401253       5.87442843       0.16412147
H        0.85022349       5.68263239       0.77527897
H        5.90996977       5.01666374       6.20539420
3
Lattice="6.35016 0.0 0.0 0.0 6.35016 0.0 0.0 0.0 6.35016" Properties=species:S:1:pos:R:3 pbc="T T T"
O        0.06274091       5.86612674       0.16805197
H        0.84453108       5.69194229       0.77580381
H        5.93944397       5.02450263       6.18125273
3
Lattice="6.35016 0.0 0.0 0.0 6.35016 0.0 0.0 0.0 6.35016" Properties=species:S:1:pos:R:3 pbc="T T T"
O        0.06144523       5.85768020       0.17196944
H        0.83546064       5.70007945       0.77378001
H        5.97268299       5.03584021       6.15988044
3
Lattice="6.35016 0.0 0.0 0.0 6.35016 0.0 0.0 0.0 6.35016" Properties=species:S:1:pos:R:3 pbc="T T T"
O        0.06012782       5.84920902       0.17586946
H        0.82392462       5.70676871       0.76980532
H        6.00874485       5.04901120       6.14074595
3
Lattice="6.35016 0.0 0.0 0.0 6.35016 0.0 0.0 0.0 6.35016" Properties=species:S:1:pos:R:3 pbc="T T T"
O        0.05878102       5.84086193       0.17975703
H        0.81117039       5.71176660       0.76473192
H        6.04650564       5.06189618       6.12292448
3
Lattice="6.35016 0.0 0.0 0.0 6.35016 0.0 0.0 0.0 6.35016" Properties=species:S:1:pos:R:3 pbc="T T T"
O        0.05738189       5.83280199       0.18364536
H        0.79873087       5.71487031       0.75963427
H        6.08479691       5.07208578       6.10512841
3
Lattice="6.35016 0.0 0.0 0.0 6.35016 0.0 0.0 0.0 6.35016" Properties=species:S:1:pos:R:3 pbc="T T T"
O        0.05588598       5.82518192       0.18755134
H        0.78828086       5.71593250       0.75570447
H        6.12265472       5.07728605       6.08589346
3
Lattice="6.35016 0.0 0.0 0.0 6.35016 0.0 0.0 0.0 6.35016" Properties=species:S:1:pos:R:3 pbc="T T T"
O        0.05422554       5.81810511       0.19148165
H        0.78138497       5.71487348       0.75406156
H        6.15959462       5.07593588       6.06398375
3
Lattice="6.35016 0.0 0.0 0.0 6.35016 0.0 0.0 0.0 6.35016" Properties=species:S:1:pos:R:3 pbc="T T T"
O        0.05232437       5.81158750       0.19541957
H        0.77917301       5.71170120       0.75549727
H        6.19570639       5.06776672       6.03886779
3
Lattice="6.35016 0.0 0.0 0.0 6.35016 0.0 0.0 0.0 6.35016" Properties=species:S:1:pos:R:3 pbc="T T T"
O        0.05012384       5.80555053       0.19932371
H        0.78204881       5.70652112       0.76025278
H        6.23151971       5.05392578       6.01096824
3
Lattice="6.35016 0.0 0.0 0.0 6.35016 0.0 0.0 0.0 6.35016" Properties=species:S:1:pos:R:3 pbc="T T T"
O        0.04761032       5.79984713       0.20314117
H        0.78957280       5.69953093       0.76793152
H        6.26769219       5.03656330       5.98152731
3
Lattice="6.35016 0.0 0.0 0.0 6.35016 0.0 0.0 0.0 6.35016" Properties=species:S:1:pos:R:3 pbc="T T T"
O        0.04482464       5.79430376       0.20682560
H        0.80059744       5.69100793       0.77761780
H        6.30471514       5.01817457       5.95220220
3
Lattice="6.35016 0.0 0.0 0.0 6.35016 0.0 0.0 0.0 6.35016" Properties=species:S:1:pos:R:3 pbc="T T T"
O        0.04185156       5.78875531       0.21034753
H        0.81356313       5.68128666       0.78812064
H        6.34279470       5.00107232       5.92467109
3
Lattice="6.35016 0.0 0.0 0.0 6.35016 0.0 0.0 0.0 6.35016" Properties=species:S:1:pos:R:3 pbc="T T T"
O        0.03879827       5.78306347       0.21369184
H        0.82682779       5.67072876       0.79823054
H        0.03168723       4.98711575       5.90036686
3
Lattice="6.35016 0.0 0.0 0.0 6.35016 0.0 0.0 0.0 6.35016" Properties=species:S:1:pos:R:3 pbc="T T T"
O        0.03577731       5.77712112       0.21685593
H        0.83889836       5.65969878       0.80689946
H        0.07141542       4.97764759       5.88037186
3
Lattice="6.35016 0.0 0.0 0.0 6.35016 0.0 0.0 0.0 6.35016" Properties=species:S:1:pos:R:3 pbc="T T T"
O        0.03289173       5.77085046       0.21984394
H        0.84856769       5.64854466       0.81335332
H        0.11138492       4.97354298       5.86542193
3
Lattice="6.35016 0.0 0.0 0.0 6.35016 0.0 0.0 0.0 6.35016" Properties=species:S:1:pos:R:3 pbc="T T T"
O        0.03022797       5.76420165       0.22265877
H        0.85495405       5.63758905       0.81711001
H        0.15107729       4.97529397       5.85593333
3
Lattice="6.35016 0.0 0.0 0.0 6.35016 0.0 0.0 0.0 6.35016" Properties=species:S:1:pos:R:3 pbc="T T T"
O        0.02785548       5.75714701       0.22530590
H        0.85749741       5.62712913       0.81796633
H        0.18995196       4.98305075       5.85201471
3
Lattice="6.35016 0.0 0.0 0.0 6.35016 0.0 0.0 0.0 6.35016" Properties=species:S:1:pos:R:3 pbc="T T T"
O        0.02582115       5.74967915       0.22779211
H        0.85596201       5.61742717       0.81600845
H        0.22747594       4.99665826       5.85348192
3
Lattice="6.35016 0.0 0.0 0.0 6.35016 0.0 0.0 0.0 6.35016" Properties=species:S:1:pos:R:3 pbc="T T T"
O        0.02414934       5.74181200       0.23012485
H        0.85043330       5.60870852       0.81160423
H        0.26316879       5.01567349       5.85984160
3
Lattice="6.35016 0.0 0.0 0.0 6.35016 0.0 0.0 0.0 6.35016" Properties=species:S:1:pos:R:3 pbc="T T T"
O        0.02283905       5.73358017       0.23231629
H        0.84131231       5.60115660       0.80539746
H        0.29665795       5.03935985       5.87025860
3
Lattice="6.35016 0.0 0.0 0.0 6.35016 0.0 0.0 0.0 6.35016" Properties=species:S:1:pos:R:3 pbc="T T T"
O        0.02185789       5.72504142       0.23438549
H        0.82932442       5.59490461       0.79831665
H        0.32774090       5.06666420       5.88350147
3
Lattice="6.35016 0.0 0.0 0.0 6.35016 0.0 0.0 0.0 6.35016" Properties=species:S:1:pos:R:3 pbc="T T T"
O        0.02114000       5.71627503       0.23636038
H        0.81550584       5.59003632       0.79156427
H        0.35644045       5.09622947       5.89792485
3
Lattice="6.35016 0.0 0.0 0.0 6.35016 0.0 0.0 0.0 6.35016" Properties=species:S:1:pos:R:3 pbc="T T T"
O        0.02058404       5.70737890       0.23827851
H        0.80115581       5.58658114       0.78657743
H        0.38307766       5.12645743       5.91148580
3
Lattice="6.35016 0.0 0.0 0.0 6.35016 0.0 0.0 0.0 6.35016" Properties=species:S:1:pos:R:3 pbc="T T T"
O        0.02006193       5.69845775       0.24018559
H        0.78769702       5.58451480       0.78490111
H        0.40828011       5.15569160       5.92191708
3
Lattice="6.35016 0.0 0.0 0.0 6.35016 0.0 0.0 0.0 6.35016" Properties=species:S:1:pos:R:3 pbc="T T T"
O        0.01944108       5.68960429       0.24212531
H        0.77644378       5.58377627       0.78798253
H        0.43286793       5.18250674       5.92706852
3
Lattice="6.35016 0.0 0.0 0.0 6.35016 0.0 0.0 0.0 6.35016" Properties=species:S:1:pos:R:3 pbc="T T T"
O        0.01861753       5.68087574       0.24412758
H        0.76827633       5.58429273       0.79687834
H        0.45758961       5.20606475       5.92541488
3
Lattice="6.35016 0.0 0.0 0.0 6.35016 0.0 0.0 0.0 6.35016" Properties=species:S:1:pos:R:3 pbc="T T T"
O        0.01755826       5.67227820       0.24619450
H        0.76339636       5.58599286       0.81198474
H        0.48281130       5.22633148       5.91651704
3
Lattice="6.35016 0.0 0.0 0.0 6.35016 0.0 0.0 0.0 6.35016" Properties=species:S:1:pos:R:3 pbc="T T T"
O        0.01630893       5.66377305       0.24830231
H        0.76125286       5.58881220       0.83291632
H        0.50833418       5.24400201       5.90115111
3
Lattice="6.35016 0.0 0.0 0.0 6.35016 0.0 0.0 0.0 6.35016" Properties=species:S:1:pos:R:3 pbc="T T T"
O        0.01498600       5.65529527       0.25040916
H        0.76068960       5.59267589       0.85857408
H        0.53344290       5.26019085       5.88107209
3
Lattice="6.35016 0.0 0.0 0.0 6.35016 0.0 0.0 0.0 6.35016" Properties=species:S:1:pos:R:3 pbc="T T T"
O        0.01374264       5.64677824       0.25247296
H        0.76025570       5.59748049       0.88739301
H        0.55715167       5.27606231       5.85852204
3
Lattice="6.35016 0.0 0.0 0.0 6.35016 0.0 0.0 0.0 6.35016" Properties=species:S:1:pos:R:3 pbc="T T T"
O        0.01272978       5.63817155       0.25446037
H        0.75852648       5.60308463       0.91763806
H        0.57846262       5.29257457       5.83576751
3
Lattice="6.35016 0.0 0.0 0.0 6.35016 0.0 0.0 0.0 6.35016" Properties=species:S:1:pos:R:3 pbc="T T T"
O        0.01207635       5.62944491       0.25635101
H        0.75429906       5.60931312       0.94762746
H        0.59652705       5.31038798       5.81481852
3
Lattice="6.35016 0.0 0.0 0.0 6.35016 0.0 0.0 0.0 6.35016" Properties=species:S:1:pos:R:3 pbc="T T T"
O        0.01187499       5.62058745       0.25813572
H        0.74670185       5.61596949       0.97589710
H        0.61072740       5.32987135       5.79728599
3
Lattice="6.35016 0.0 0.0 0.0 6.35016 0.0 0.0 0.0 6.35016" Properties=species:S:1:pos:R:3 pbc="T T T"
O        0.01218234       5.61160356       0.25981394
H        0.73520178       5.62285014       1.00125837
H        0.62068826       5.35115880       5.78437351
3
Lattice="6.35016 0.0 0.0 0.0 6.35016 0.0 0.0 0.0 6.35016" Properties=species:S:1:pos:R:3 pbc="T T T"
O        0.01302107       5.60250835       0.26138973
H        0.71958540       5.62976197       1.02282561
H        0.62626345       5.37420493       5.77688946
3
Lattice="6.35016 0.0 0.0 0.0 6.35016 0.0 0.0 0.0 6.35016" Properties=species:S:1:pos:R:3 pbc="T T T"
O        0.01438172       5.59332266       0.26287218
H        0.69992930       5.63653327       1.04003213
H        0.62753291       5.39883205       5.77526122
3
Lattice="6.35016 0.0 0.0 0.0 6.35016 0.0 0.0 0.0 6.35016" Properties=species:S:1:pos:R:3 pbc="T T T"
O        0.01622479       5.58407149       0.26427258
H        0.67656453       5.64302453       1.05263249
H        0.62478691       5.42477931       5.77955577
3
Lattice="6.35016 0.0 0.0 0.0 6.35016 0.0 0.0 0.0 6.35016" Properties=species:S:1:pos:R:3 pbc="T T T"
O        0.01848195       5.57478032       0.26560503
H        0.65006289       5.64914679       1.06073085
H        0.61855740       5.45173333       5.78943928
3
Lattice="6.35016 0.0 0.0 0.0 6.35016 0.0 0.0 0.0 6.35016" Properties=species:S:1:pos:R:3 pbc="T T T"
O        0.02105383       5.56547105       0.26688884
H        0.62120866       5.65487514       1.06480016
H        0.60963949       5.47935856       5.80413692
3
Lattice="6.35016 0.0 0.0 0.0 6.35016 0.0 0.0 0.0 6.35016" Properties=species:S:1:pos:R:3 pbc="T T T"
O        0.02380954       5.55615949       0.26814814
H        0.59099206       5.66026852       1.06573002
H        0.59913702       5.50734841       5.82237864
3
Lattice="6.35016 0.0 0.0 0.0 6.35016 0.0 0.0 0.0 6.35016" Properties=species:S:1:pos:R:3 pbc="T T T"
O        0.02658787       5.54684933       0.26941316
H        0.56057041       5.66548708       1.06482436
H        0.58846964       5.53548927       5.84237765
3
Lattice="6.35016 0.0 0.0 0.0 6.35016 0.0 0.0 0.0 6.35016" Properties=species:S:1:pos:R:3 pbc="T T T"
O        0.02920705       5.53752685       0.27071837
H        0.53118187       5.67080166       1.06373931
H        0.57931176       5.56373066       5.86192630
3
Lattice="6.35016 0.0 0.0 0.0 6.35016 0.0 0.0 0.0 6.35016" Properties=species:S:1:pos:R:3 pbc="T T T"
O        0.03148447       5.52815808       0.27209458
H        0.50401195       5.67658024       1.06431552
H        0.57340033       5.59224453       5.87868907
3
Lattice="6.35016 0.0 0.0 0.0 6.35016 0.0 0.0 0.0 6.35016" Properties=species:S:1:pos:R:3 pbc="T T T"
O        0.03327160       5.51869380       0.27355530
H        0.47999812       5.68323489       1.06823395
H        0.57215621       5.62141932       5.89076504
3
Lattice="6.35016 0.0 0.0 0.0 6.35016 0.0 0.0 0.0 6.35016" Properties=species:S:1:pos:R:3 pbc="T T T"
O        0.03449591       5.50908277       0.27508493
H        0.45963969       5.69112941       1.07659514
H        0.57625257       5.65171378       5.89730659
3
Lattice="6.35016 0.0 0.0 0.0 6.35016 0.0 0.0 0.0 6.35016" Properties=species:S:1:pos:R:3 pbc="T T T"
O        0.03517938       5.49929323       0.27663812
H        0.44289877       5.70047113       1.08959354
H        0.58537305       5.68342362       5.89883628
3
Lattice="6.35016 0.0 0.0 0.0 6.35016 0.0 0.0 0.0 6.35016" Properties=species:S:1:pos:R:3 pbc="T T T"
O        0.03542996       5.48932920       0.27815796
H        0.42924669       5.71123719       1.10643721
H        0.59831449       5.71650224       5.89705456
3
Lattice="6.35016 0.0 0.0 0.0 6.35016 0.0 0.0 0.0 6.35016" Properties=species:S:1:pos:R:3 pbc="T T T"
O        0.03540684       5.47923308       0.27959704
H        0.41784815       5.72316971       1.12559094
H        0.61337885       5.75052639       5.89424607
3
Lattice="6.35016 0.0 0.0 0.0 6.35016 0.0 0.0 0.0 6.35016" Properties=species:S:1:pos:R:3 pbc="T T T"
O        0.03527812       5.46907517       0.28093152
H        0.40777178       5.73583816       1.14518779
H        0.62879532       5.78480589       5.89266958
3
Lattice="6.35016 0.0 0.0 0.0 6.35016 0.0 0.0 0.0 6.35016" Properties=species:S:1:pos:R:3 pbc="T T T"
O        0.03519576       5.45893867       0.28215901
H        0.39815821       5.74872231       1.16340297
H        0.64299739       5.81852689       5.89418352
3
Lattice="6.35016 0.0 0.0 0.0 6.35016 0.0 0.0 0.0 6.35016" Properties=species:S:1:pos:R:3 pbc="T T T"
O        0.03528231       5.44890757       0.28329442
H        0.38829666       5.76128496       1.17869263
H        0.65474144       5.85087835       5.90010943
3
Lattice="6.35016 0.0 0.0 0.0 6.35016 0.0 0.0 0.0 6.35016" Properties=species:S:1:pos:R:3 pbc="T T T"
O        0.03562878       5.43906006       0.28435870
H        0.37764490       5.77302476       1.18990676
H        0.66310936       5.88111927       5.91125485
3
Lattice="6.35016 0.0 0.0 0.0 6.35016 0.0 0.0 0.0 6.35016" Properties=species:S:1:pos:R:3 pbc="T T T"
O        0.03629834       5.42946408       0.28537587
H        0.36581303       5.78350011       1.19630067
H        0.66747529       5.90861128       5.92797799
3
Lattice="6.35016 0.0 0.0 0.0 6.35016 0.0 0.0 0.0 6.35016" Properties=species:S:1:pos:R:3 pbc="T T T"
O        0.03732929       5.42017354       0.28636859
H        0.35255434       5.79235394       1.19755464
H        0.66749351       5.93285651       5.95024096
3
Lattice="6.35016 0.0 0.0 0.0 6.35016 0.0 0.0 0.0 6.35016" Properties=species:S:1:pos:R:3 pbc="T T T"
O        0.03873579       5.41122579       0.28735446
H        0.33773358       5.79931931       1.19373794
H        0.66305697       5.95350462       5.97767378
3
Lattice="6.35016 0.0 0.0 0.0 6.35016 0.0 0.0 0.0 6.35016" Properties=species:S:1:pos:R:3 pbc="T T T"
O        0.04051135       5.40264094       0.28834737
H        0.32131664       5.80424354       1.18531623
H        0.65431166       5.97039535       6.00958295
3
Lattice="6.35016 0.0 0.0 0.0 6.35016 0.0 0.0 0.0 6.35016" Properties=species:S:1:pos:R:3 pbc="T T T"
O        0.04262742       5.39441488       0.28935634
H        0.30334708       5.80709851       1.17315472
H        0.64166474       5.98360470       6.04496572
3
Lattice="6.35016 0.0 0.0 0.0 6.35016 0.0 0.0 0.0 6.35016" Properties=species:S:1:pos:R:3 pbc="T T T"
O        0.04503368       5.38651630       0.29038475
H        0.28393439       5.80800696       1.15853303
H        0.62581779       5.99351514       6.08249910
3
Lattice="6.35016 0.0 0.0 0.0 6.35016 0.0 0.0 0.0 6.35016" Properties=species:S:1:pos:R:3 pbc="T T T"
O        0.04765738       5.37888048       0.29142954
H        0.26322893       5.80725098       1.14312710
H        0.60778245       6.00087809       6.12055288
3
Lattice="6.35016 0.0 0.0 0.0 6.35016 0.0 0.0 0.0 6.35016" Properties=species:S:1:pos:R:3 pbc="T T T"
O        0.05040808       5.37140876       0.29248297
H        0.24138622       5.80525830       1.12892440
H        0.58885497       6.00684514       6.15726602
3
Lattice="6.35016 0.0 0.0 0.0 6.35016 0.0 0.0 0.0 6.35016" Properties=species:S:1:pos:R:3 pbc="T T T"
O        0.05318602       5.36397399       0.29353399
H        0.21851669       5.80255192       1.11805768
H        0.57052479       6.01292802       6.19068284
3
Lattice="6.35016 0.0 0.0 0.0 6.35016 0.0 0.0 0.0 6.35016" Properties=species:S:1:pos:R:3 pbc="T T T"
O        0.05590078       5.35644397       0.29457224
H        0.19462980       5.79961345       1.11245411
H        0.55422476       6.02075472       6.21903898
3
Lattice="6.35016 0.0 0.0 0.0 6.35016 0.0 0.0 0.0 6.35016" Properties=species:S:1:pos:R:3 pbc="T T T"
O        0.05849291       5.34871691       0.29559284
H        0.16961462       5.79672698       1.11344829
H        0.54102519       6.03168436       6.24108216
3
Lattice="6.35016 0.0 0.0 0.0 6.35016 0.0 0.0 0.0 6.35016" Properties=species:S:1:pos:R:3 pbc="T T T"
O        0.06094985       5.34075844       0.29660156
H        0.14326437       5.79382655       1.12141717
H        0.53133198       6.04633634       6.25634305
3
Lattice="6.35016 0.0 0.0 0.0 6.35016 0.0 0.0 0.0 6.35016" Properties=species:S:1:pos:R:3 pbc="T T T"
O        0.06330481       5.33261944       0.29761866
H        0.11536952       5.79046458       1.13567030
H        0.52481710       6.06434317       6.26518578
3
Lattice="6.35016 0.0 0.0 0.0 6.35016 0.0 0.0 0.0 6.35016" Properties=species:S:1:pos:R:3 pbc="T T T"
O        0.06562103       5.32442393       0.29867838
H        0.08582146       5.78591456       1.15463727
H        0.52058605       6.08445343       6.26863150
3
Lattice="6.35016 0.0 0.0 0.0 6.35016 0.0 0.0 0.0 6.35016" Properties=species:S:1:pos:R:3 pbc="T T T"
O        0.06796640       5.31633154       0.29982477
H        0.05467691       5.77935606       1.17626128
H        0.51749981       6.10493441       6.26803306
3
Lattice="6.35016 0.0 0.0 0.0 6.35016 0.0 0.0 0.0 6.35016" Properties=species:S:1:pos:R:3 pbc="T T T"
O        0.07039648       5.30850236       0.30110465
H        0.02216701       5.77004418       1.19838422
H        0.51444488       6.12397009       6.26479899
3
Lattice="6.35016 0.0 0.0 0.0 6.35016 0.0 0.0 0.0 6.35016" Properties=species:S:1:pos:R:3 pbc="T T T"
O        0.07294518       5.30107070       0.30256074
H        6.33881766       5.75741416       1.21903082
H        0.51049266       6.13995078       6.26021290
3
Lattice="6.35016 0.0 0.0 0.0 6.35016 0.0 0.0 0.0 6.35016" Properties=species:S:1:pos:R:3 pbc="T T T"
O        0.07562755       5.29413690       0.30422810
H        6.30476912       5.74113076       1.23656189
H        0.50496085       6.15162199       6.25536100
3
Lattice="6.35016 0.0 0.0 0.0 6.35016 0.0 0.0 0.0 6.35016" Properties=species:S:1:pos:R:3 pbc="T T T"
O        0.07844041       5.28776109       0.30613048
H        6.27067028       5.72107079       1.24972876
H        0.49740746       6.15811960       6.25110373
3
Lattice="6.35016 0.0 0.0 0.0 6.35016 0.0 0.0 0.0 6.35016" Properties=species:S:1:pos:R:3 pbc="T T T"
O        0.08136885       5.28197025       0.30828204
H        6.23699983       5.69730373       1.25766360
H        0.48759551       6.15895548       6.24808785
3
Lattice="6.35016 0.0 0.0 0.0 6.35016 0.0 0.0 0.0 6.35016" Properties=species:S:1:pos:R:3 pbc="T T T"
O        0.08438931       5.27675785       0.31068666
H        6.20419275       5.67006244       1.25987365
H        0.47547687       6.15401207       6.24674714
3
Lattice="6.35016 0.0 0.0 0.0 6.35016 0.0 0.0 0.0 6.35016" Properties=species:S:1:pos:R:3 pbc="T T T"
O        0.08747104       5.27208311       0.31333785
H        6.17260819       5.63972010       1.25622085
H        0.46116818       6.14354097       6.24731268
3
Lattice="6.35016 0.0 0.0 0.0 6.35016 0.0 0.0 0.0 6.35016" Properties=species:S:1:pos:R:3 pbc="T T T"
O        0.09058230       5.26787759       0.31622127
H        6.14249688       5.60677642       1.24691812
H        0.44494098       6.12818184       6.24980448
3
Lattice="6.35016 0.0 0.0 0.0 6.35016 0.0 0.0 0.0 6.35016" Properties=species:S:1:pos:R:3 pbc="T T T"
O        0.09368893       5.26403517       0.31931468
H        6.11395723       5.57182679       1.23255418
H        0.42722810       6.10901566       6.25398657
3
Lattice="6.35016 0.0 0.0 0.0 6.35016 0.0 0.0 0.0 6.35016" Properties=species:S:1:pos:R:3 pbc="T T T"
O        0.09676094       5.26041558       0.32258870
H        6.08688541       5.53555284       1.21411103
H        0.40861749       6.08761105       6.25934833
3
Lattice="6.35016 0.0 0.0 0.0 6.35016 0.0 0.0 0.0 6.35016" Properties=species:S:1:pos:R:3 pbc="T T T"
O        0.09977409       5.25684476       0.32600915
H        6.06094006       5.49868305       1.19292740
H        0.38982242       6.06601307       6.26509542
3
Lattice="6.35016 0.0 0.0 0.0 6.35016 0.0 0.0 0.0 6.35016" Properties=species:S:1:pos:R:3 pbc="T T T"
O        0.10271784       5.25312611       0.32953793
H        6.03551726       5.46194318       1.17065517
H        0.37161733       6.04665645       6.27019047
3
Lattice="6.35016 0.0 0.0 0.0 6.35016 0.0 0.0 0.0 6.35016" Properties=species:S:1:pos:R:3 pbc="T T T"
O        0.10560113       5.24906220       0.33313390
H        6.00978025       5.42599086       1.14908400
H        0.35469593       6.03204467       6.27350874
3
Lattice="6.35016 0.0 0.0 0.0 6.35016 0.0 0.0 0.0 6.35016" Properties=species:S:1:pos:R:3 pbc="T T T"
O        0.10845641       5.24449440       0.33675286
H        5.98277435       5.39134058       1.12984453
H        0.33948101       6.02421378       6.27413144
3
Lattice="6.35016 0.0 0.0 0.0 6.35016 0.0 0.0 0.0 6.35016" Properties=species:S:1:pos:R:3 pbc="T T T"
O        0.11133621       5.23934207       0.34034749
H        5.95367620       5.35831035       1.11402768
H        0.32596082       6.02410354       6.27169520
3
Lattice="6.35016 0.0 0.0 0.0 6.35016 0.0 0.0 0.0 6.35016" Properties=species:S:1:pos:R:3 pbc="T T T"
O        0.11429602       5.23362686       0.34387863
H        5.92204860       5.32703924       1.10190840
H        0.31367803       6.03127078       6.26657176
3
Lattice="6.35016 0.0 0.0 0.0 6.35016 0.0 0.0 0.0 6.35016" Properties=species:S:1:pos:R:3 pbc="T T T"
O        0.11737547       5.22745120       0.34731991
H        5.88802006       5.29753303       1.09288006
H        0.30188413       6.04405562       6.25977309
3
Lattice="6.35016 0.0 0.0 0.0 6.35016 0.0 0.0 0.0 6.35016" Properties=species:S:1:pos:R:3 pbc="T T T"
O        0.12058166       5.22096471       0.35066796
H        5.85228898       5.26974708       1.08565574
H        0.28975793       6.06011403       6.25265812
3
Lattice="6.35016 0.0 0.0 0.0 6.35016 0.0 0.0 0.0 6.35016" Properties=species:S:1:pos:R:3 pbc="T T T"
O        0.12388984       5.21432193       0.35393709
H        5.81596168       5.24364887       1.07864288
H        0.27659443       6.07700145       6.24658648
3
Lattice="6.35016 0.0 0.0 0.0 6.35016 0.0 0.0 0.0 6.35016" Properties=species:S:1:pos:R:3 pbc="T T T"
O        0.12725130       5.20765826       0.35715332
H        5.78031766       5.21923880       1.07028886
H        0.26189127       6.09255592       6.24270164
3
Lattice="6.35016 0.0 0.0 0.0 6.35016 0.0 0.0 0.0 6.35016" Properties=species:S:1:pos:R:3 pbc="T T T"
O        0.13060647       5.20107905       0.36034497
H        5.74660022       5.19653240       1.05930397
H        0.24536371       6.10506287       6.24184088
3
Lattice="6.35016 0.0 0.0 0.0 6.35016 0.0 0.0 0.0 6.35016" Properties=species:S:1:pos:R:3 pbc="T T T"
O        0.13389243       5.19466044       0.36353815
H        5.71589453       5.17554023       1.04475849
H        0.22691865       6.11329116       6.24452483
3
Lattice="6.35016 0.0 0.0 0.0 6.35016 0.0 0.0 0.0 6.35016" Properties=species:S:1:pos:R:3 pbc="T T T"
O        0.13705239       5.18845271       0.36675298
H        5.68905526       5.15624667       1.02608667
H        0.20662132       6.11644738       6.25099000
3
Lattice="6.35016 0.0 0.0 0.0 6.35016 0.0 0.0 0.0 6.35016" Properties=species:S:1:pos:R:3 pbc="T T T"
O        0.14003544       5.18248318       0.37000534
H        5.66669037       5.13859075       1.00305559
H        0.18466367       6.11415008       6.26122010
3
Lattice="6.35016 0.0 0.0 0.0 6.35016 0.0 0.0 0.0 6.35016" Properties=species:S:1:pos:R:3 pbc="T T T"
O        0.14280303       5.17675985       0.37330616
H        5.64914634       5.12245258       0.97573530
H        0.16133871       6.10640523       6.27496903
3
Lattice="6.35016 0.0 0.0 0.0 6.35016 0.0 0.0 0.0 6.35016" Properties=species:S:1:pos:R:3 pbc="T T T"
O        0.14532957       5.17126829       0.37666355
H        5.63647219       5.10763226       0.94446558
H        0.13700877       6.09363621       6.29177009
3
Lattice="6.35016 0.0 0.0 0.0 6.35016 0.0 0.0 0.0 6.35016" Properties=species:S:1:pos:R:3 pbc="T T T"
O        0.14760604       5.16597194       0.38008425
H        5.62839866       5.09384130       0.90982127
H        0.11207905       6.07669519       6.31094427
3
Lattice="6.35016 0.0 0.0 0.0 6.35016 0.0 0.0 0.0 6.35016" Properties=species:S:1:pos:R:3 pbc="T T T"
O        0.14964508       5.16081383       0.38357386
H        5.62430414       5.08068847       0.87259676
H        0.08696741       6.05690491       6.33160324
3
Lattice="6.35016 0.0 0.0 0.0 6.35016 0.0 0.0 0.0 6.35016" Properties=species:S:1:pos:R:3 pbc="T T T"
O        0.15148446       5.15571268       0.38713852
H        5.62318676       5.06766848       0.83377728
H        0.06207135       6.03605981       0.00250869
3
Lattice="6.35016 0.0 0.0 0.0 6.35016 0.0 0.0 0.0 6.35016" Properties=species:S:1:pos:R:3 pbc="T T T"
O        0.15319005       5.15057394       0.39078326
H        5.62366563       5.05415762       0.79446090
H        0.03772109       6.01631177       0.02279619
3
Lattice="6.35016 0.0 0.0 0.0 6.35016 0.0 0.0 0.0 6.35016" Properties=species:S:1:pos:R:3 pbc="T T T"
O        0.15485075       5.14530217       0.39451029
H        5.62407362       5.03943383       0.75575705
H        0.01415698       5.99990905       0.04116174
3
Lattice="6.35016 0.0 0.0 0.0 6.35016 0.0 0.0 0.0 6.35016" Properties=species:S:1:pos:R:3 pbc="T T T"
O        0.15656389       5.13982624       0.39831556
H        5.62268827       5.02273017       0.71862411
H        6.34171772       5.98875525       0.05670871
3
Lattice="6.35016 0.0 0.0 0.0 6.35016 0.0 0.0 0.0 6.35016" Properties=species:S:1:pos:R:3 pbc="T T T"
O        0.15840652       5.13412481       0.40218637
H        5.61808955       5.00332650       0.68370026
H        6.32026815       5.98392456       0.06899284
3
Lattice="6.35016 0.0 0.0 0.0 6.35016 0.0 0.0 0.0 6.35016" Properties=species:S:1:pos:R:3 pbc="T T T"
O        0.16040771       5.12823395       0.40610270
H        5.60955030       4.98067376       0.65121348
H        6.30023187       5.98537709       0.07810735
3
Lattice="6.35016 0.0 0.0 0.0 6.35016 0.0 0.0 0.0 6.35016" Properties=species:S:1:pos:R:3 pbc="T T T"
O        0.16253000       5.12223902       0.41004044
H        5.59729157       4.95451212       0.62098818
H        6.28197948       5.99200590       0.08461995
3
Lattice="6.35016 0.0 0.0 0.0 6.35016 0.0 0.0 0.0 6.35016" Properties=species:S:1:pos:R:3 pbc="T T T"
O        0.16467610       5.11624822       0.41397328
H        5.58243315       4.92492323       0.59258880
H        6.26595066       6.00201781       0.08937850
3
Lattice="6.35016 0.0 0.0 0.0 6.35016 0.0 0.0 0.0 6.35016" Properties=species:S:1:pos:R:3 pbc="T T T"
O        0.16671177       5.11036276       0.41787653
H        5.56669828       4.89229986       0.56549477
H        6.25256598       6.01336828       0.09330728
3
Lattice="6.35016 0.0 0.0 0.0 6.35016 0.0 0.0 0.0 6.35016" Properties=species:S:1:pos:R:3 pbc="T T T"
O        0.16849508       5.10466572       0.42172562
H        5.55201283       4.85726679       0.53925076
H        6.24216264       6.02412723       0.09724978
3
Lattice="6.35016 0.0 0.0 0.0 6.35016 0.0 0.0 0.0 6.35016" Properties=species:S:1:pos:R:3 pbc="T T T"
O        0.16990025       5.09920998       0.42549825
H        5.54019709       4.82058020       0.51352741
H        6.23495825       6.03267461       0.10188940
3
Lattice="6.35016 0.0 0.0 0.0 6.35016 0.0 0.0 0.0 6.35016" Properties=species:S:1:pos:R:3 pbc="T T T"
O        0.17082591       5.09402310       0.42917442
H        5.53276213       4.78304275       0.48814023
H        6.23103506       6.03777740       0.10773021
3
Lattice="6.35016 0.0 0.0 0.0 6.35016 0.0 0.0 0.0 6.35016" Properties=species:S:1:pos:R:3 pbc="T T T"
O        0.17120590       5.08910751       0.43273775
H        5.53083473       4.74542377       0.46302731
H        6.23035115       6.03860464       0.11509906
3
Lattice="6.35016 0.0 0.0 0.0 6.35016 0.0 0.0 0.0 6.35016" Properties=species:S:1:pos:R:3 pbc="T T T"
O        0.17100295       5.08444763       0.43617636
H        5.53515875       4.70844259       0.43820835
H        6.23274491       6.03470780       0.12416036
3
Lattice="6.35016 0.0 0.0 0.0 6.35016 0.0 0.0 0.0 6.35016" Properties=species:S:1:pos:R:3 pbc="T T T"
O        0.17021140       5.08000728       0.43948537
H        5.54609823       4.67271374       0.41375972
H        6.23793819       6.02603875       0.13492401
3
Lattice="6.35016 0.0 0.0 0.0 6.35016 0.0 0.0 0.0 6.35016" Properties=species:S:1:pos:R:3 pbc="T T T"
O        0.16885603       5.07573464       0.44266699
H        5.56366836       4.63873746       0.38978044
H        6.24553845       6.01294688       0.14725424
3
Lattice="6.35016 0.0 0.0 0.0 6.35016 0.0 0.0 0.0 6.35016" Properties=species:S:1:pos:R:3 pbc="T T T"
O        0.16698768       5.07155871       0.44573297
H        5.58754909       4.60687185       0.36636683
H        6.25503410       5.99621853       0.16086422
3
Lattice="6.35016 0.0 0.0 0.0 6.35016 0.0 0.0 0.0 6.35016" Properties=species:S:1:pos:R:3 pbc="T T T"
O        0.16468670       5.06738837       0.44870751
H        5.61708667       4.57729134       0.34358398
H        6.26579120       5.97711014       0.17531750
3
Lattice="6.35016 0.0 0.0 0.0 6.35016 0.0 0.0 0.0 6.35016" Properties=species:S:1:pos:R:3 pbc="T T T"
O        0.16206180       5.06311922       0.45162668
H        5.65128901       4.54995301       0.32142783
H        6.27706439       5.95735371       0.19003743
3
Lattice="6.35016 0.0 0.0 0.0 6.35016 0.0 0.0 0.0 6.35016" Properties=species:S:1:pos:R:3 pbc="T T T"
O        0.15924639       5.05863601       0.45453925
H        5.68883872       4.52456209       0.29979461
H        6.28803816       5.93907280       0.20434091
3
Lattice="6.35016 0.0 0.0 0.0 6.35016 0.0 0.0 0.0 6.35016" Properties=species:S:1:pos:R:3 pbc="T T T"
O        0.15639193       5.05383427       0.45750477
H        5.72811528       4.50052927       0.27844645
H        6.29789780       5.92452770       0.21751730
3
Lattice="6.35016 0.0 0.0 0.0 6.35016 0.0 0.0 0.0 6.35016" Properties=species:S:1:pos:R:3 pbc="T T T"
O        0.15365342       5.04864607       0.46058625
H        5.76734105       4.47700860       0.25698888
H        6.30595355       5.91563906       0.22896080
3
Lattice="6.35016 0.0 0.0 0.0 6.35016 0.0 0.0 0.0 6.35016" Properties=species:S:1:pos:R:3 pbc="T T T"
O        0.15116816       5.04307005       0.46383994
H        5.80477327       4.45301109       0.23487889
H        6.31174871       5.91343626       0.23830601
3
Lattice="6.35016 0.0 0.0 0.0 6.35016 0.0 0.0 0.0 6.35016" Properties=species:S:1:pos:R:3 pbc="T T T"
O        0.14903394       5.03717526       0.46730770
H        5.83902984       4.42764970       0.21150916
H        6.31511467       5.91769442       0.24549522
3
Lattice="6.35016 0.0 0.0 0.0 6.35016 0.0 0.0 0.0 6.35016" Properties=species:S:1:pos:R:3 pbc="T T T"
O        0.14729069       5.03108330       0.47100794
H        5.86937618       4.40045977       0.18636367
H        6.31614118       5.92695829       0.25074312
3
Lattice="6.35016 0.0 0.0 0.0 6.35016 0.0 0.0 0.0 6.35016" Properties=species:S:1:pos:R:3 pbc="T T T"
O        0.14591995       5.02492244       0.47493488
H        5.89585152       4.37162376       0.15917356
H        6.31507924       5.93899146       0.25441256
3
Lattice="6.35016 0.0 0.0 0.0 6.35016 0.0 0.0 0.0 6.35016" Properties=species:S:1:pos:R:3 pbc="T T T"
O        0.14485706       5.01879149       0.47905937
H        5.91917280       4.34203252       0.13001902
H        6.31224415       5.95132582       0.25688918
3
Lattice="6.35016 0.0 0.0 0.0 6.35016 0.0 0.0 0.0 6.35016" Properties=species:S:1:pos:R:3 pbc="T T T"
O        0.14401369       5.01274359       0.48333481
H        5.94044063       4.31308487       0.09931942
H        6.30794979       5.96171074       0.25849596
3
Lattice="6.35016 0.0 0.0 0.0 6.35016 0.0 0.0 0.0 6.35016" Properties=species:S:1:pos:R:3 pbc="T T T"
O        0.14329898       5.00679140       0.48770600
H        5.96082140       4.28636949       0.06773201
H        6.30247868       5.96834831       0.25946201
3
Lattice="6.35016 0.0 0.0 0.0 6.35016 0.0 0.0 0.0 6.35016" Properties=species:S:1:pos:R:3 pbc="T T T"
O        0.14263393       5.00091852       0.49211651
H        5.98133363       4.26339315       0.03602293
H        6.29607264       5.96997236       0.25992380
3
Lattice="6.35016 0.0 0.0 0.0 6.35016 0.0 0.0 0.0 6.35016" Properties=species:S:1:pos:R:3 pbc="T T T"
O        0.14195757       4.99509390       0.49651457
H        6.00275126       4.24540137       0.00495325
H        6.28893430       5.96583416       0.25994278
3
Lattice="6.35016 0.0 0.0 0.0 6.35016 0.0 0.0 0.0 6.35016" Properties=species:S:1:pos:R:3 pbc="T T T"
O        0.14122667       4.98927778       0.50085674
H        6.02559278       4.23329562       6.32537717
H        6.28122463       5.95567352       0.25951999
3
Lattice="6.35016 0.0 0.0 0.0 6.35016 0.0 0.0 0.0 6.35016" Properties=species:S:1:pos:R:3 pbc="T T T"
O        0.14041709       4.98342294       0.50510970
H        6.05014644       4.22761089       6.29756118
H        6.27305750       5.93969182       0.25860055
3
Lattice="6.35016 0.0 0.0 0.0 6.35016 0.0 0.0 0.0 6.35016" Properties=species:S:1:pos:R:3 pbc="T T T"
O        0.13951905       4.97747982       0.50925286
H        6.07650233       4.22852455       6.27210688
H        6.26448637       5.91853861       0.25707785
3
Lattice="6.35016 0.0 0.0 0.0 6.35016 0.0 0.0 0.0 6.35016" Properties=species:S:1:pos:R:3 pbc="T T T"
O        0.13853839       4.97139053       0.51327892
H        6.10459690       4.23586216       6.24929145
H        6.25548324       5.89331222       0.25478436
3
Lattice="6.35016 0.0 0.0 0.0 6.35016 0.0 0.0 0.0 6.35016" Properties=species:S:1:pos:R:3 pbc="T T T"
O        0.13749563       4.96509130       0.51719754
H        6.13423532       4.24909418       6.22919307
H        6.24592651       5.86553058       0.25149193
3
Lattice="6.35016 0.0 0.0 0.0 6.35016 0.0 0.0 0.0 6.35016" Properties=species:S:1:pos:R:3 pbc="T T T"
O        0.13642328       4.95852294       0.52103653
H        6.16511164       4.26733298       6.21163926
H        6.23559283       5.83705907       0.24692070
3
Lattice="6.35016 0.0 0.0 0.0 6.35016 0.0 0.0 0.0 6.35016" Properties=species:S:1:pos:R:3 pbc="T T T"
O        0.13536477       4.95163385       0.52484307
H        6.19683628       4.28933635       6.19616348
H        6.22417918       5.80994681       0.24077387
3
Lattice="6.35016 0.0 0.0 0.0 6.35016 0.0 0.0 0.0 6.35016" Properties=species:S:1:pos:R:3 pbc="T T T"
O        0.13436729       4.94440311       0.52868232
H        6.22897774       4.31353719       6.18195455
H        6.21136525       5.78610348       0.23282201
3
Lattice="6.35016 0.0 0.0 0.0 6.35016 0.0 0.0 0.0 6.35016" Properties=species:S:1:pos:R:3 pbc="T T T"
O        0.13347096       4.93685226       0.53262735
H        6.26113177       4.33817429       6.16789961
H        6.19691629       5.76693610       0.22301552
3
Lattice="6.35016 0.0 0.0 0.0 6.35016 0.0 0.0 0.0 6.35016" Properties=species:S:1:pos:R:3 pbc="T T T"
O        0.13269650       4.92905484       0.53674321
H        6.29300119       4.36149792       6.15271676
H        6.18079564       5.75303604       0.21159768
3
Lattice="6.35016 0.0 0.0 0.0 6.35016 0.0 0.0 0.0 6.35016" Properties=species:S:1:pos:R:3 pbc="T T T"
O        0.13203627       4.92112114       0.54106665
H        6.32448592       4.38205453       6.13524430
H        6.16322482       5.74409044       0.19914508
3
Lattice="6.35016 0.0 0.0 0.0 6.35016 0.0 0.0 0.0 6.35016" Properties=species:S:1:pos:R:3 pbc="T T T"
O        0.13145365       4.91317213       0.54558714
H        0.00555772       4.39896482       6.11480446
H        6.14466044       5.73904886       0.18650560
3
Lattice="6.35016 0.0 0.0 0.0 6.35016 0.0 0.0 0.0 6.35016" Properties=species:S:1:pos:R:3 pbc="T T T"
O        0.13089204       4.90531000       0.55023832
H        0.03684344       4.41204964       6.09148299
H        6.12570007       5.73645272       0.17465563
3
Lattice="6.35016 0.0 0.0 0.0 6.35016 0.0 0.0 0.0 6.35016" Properties=species:S:1:pos:R:3 pbc="T T T"
O        0.13028871       4.89760332       0.55490384
H        0.06855531       4.42174709       6.06618104
H        6.10697148       5.73475634       0.16455112
3
Lattice="6.35016 0.0 0.0 0.0 6.35016 0.0 0.0 0.0 6.35016" Properties=species:S:1:pos:R:3 pbc="T T T"
O        0.12958860       4.89008975       0.55943906
H        0.10099834       4.42886334       6.04038738
H        6.08904714       5.73256401       0.15701552
3
Lattice="6.35016 0.0 0.0 0.0 6.35016 0.0 0.0 0.0 6.35016" Properties=species:S:1:pos:R:3 pbc="T T T"
O        0.12875273       4.88278090       0.56369500
H        0.13433090       4.43432232       6.01585227
H        6.07239448       5.72874579       0.15268274
3
Lattice="6.35016 0.0 0.0 0.0 6.35016 0.0 0.0 0.0 6.35016" Properties=species:S:1:pos:R:3 pbc="T T T"
O        0.12775925       4.87567622       0.56753926
H        0.16854880       4.43897724       5.99426490
H        6.05736003       5.72246866       0.15198733
3
Lattice="6.35016 0.0 0.0 0.0 6.35016 0.0 0.0 0.0 6.35016" Properties=species:S:1:pos:R:3 pbc="T T T"
O        0.12660416       4.86876369       0.57086694
H        0.20351355       4.44352243       5.97706988
H        6.04415449       5.71321514       0.15516337
3
Lattice="6.35016 0.0 0.0 0.0 6.35016 0.0 0.0 0.0 6.35016" Properties=species:S:1:pos:R:3 pbc="T T T"
O        0.12529717       4.86202591       0.57360583
H        0.23898834       4.44847206       5.96537891
H        6.03285305       5.70076101       0.16225999
3
Lattice="6.35016 0.0 0.0 0.0 6.35016 0.0 0.0 0.0 6.35016" Properties=species:S:1:pos:R:3 pbc="T T T"
O        0.12386070       4.85543705       0.57571586
H        0.27468309       4.45417044       5.95995740
H        6.02338216       5.68518198       0.17314962
3
Lattice="6.35016 0.0 0.0 0.0 6.35016 0.0 0.0 0.0 6.35016" Properties=species:S:1:pos:R:3 pbc="T T T"
O        0.12232878       4.84896065       0.57718966
H        0.31029803       4.46081112       5.96122400
H        6.01550739       5.66685808       0.18753000
3
Lattice="6.35016 0.0 0.0 0.0 6.35016 0.0 0.0 0.0 6.35016" Properties=species:S:1:pos:R:3 pbc="T T T"
O        0.12074474       4.84255092       0.57805151
H        0.34554262       4.46846421       5.96926997
H        6.00881642       5.64646981       0.20493008
3
Lattice="6.35016 0.0 0.0 0.0 6.35016 0.0 0.0 0.0 6.35016" Properties=species:S:1:pos:R:3 pbc="T T T"
O        0.11916139       4.83614850       0.57835492
H        0.38018084       4.47709064       5.98385115
H        6.00270299       5.62501726       0.22472035
3
Lattice="6.35016 0.0 0.0 0.0 6.35016 0.0 0.0 0.0 6.35016" Properties=species:S:1:pos:R:3 pbc="T T T"
O        0.11763779       4.82968175       0.57818467
H        0.41406231       4.48654743       6.00437956
H        5.99637747       5.60376746       0.24614350
3
Lattice="6.35016 0.0 0.0 0.0 6.35016 0.0 0.0 0.0 6.35016" Properties=species:S:1:pos:R:3 pbc="T T T"
O        0.11623257       4.82307797       0.57765164
H        0.44716423       4.49659992       6.02989508
H        5.98892315       5.58414369       0.26837840
3
Lattice="6.35016 0.0 0.0 0.0 6.35016 0.0 0.0 0.0 6.35016" Properties=species:S:1:pos:R:3 pbc="T T T"
O        0.11499390       4.81626933       0.57688949
H        0.47963952       4.50693157       6.05905939
H        5.97942178       5.56751542       0.29063952
3
Lattice="6.35016 0.0 0.0 0.0 6.35016 0.0 0.0 0.0 6.35016" Properties=species:S:1:pos:R:3 pbc="T T T"
O        0.11394238       4.80921684       0.57604460
H        0.51186798       4.51716428       6.09015657
H        5.96715512       5.55490705       0.31228436
3
Lattice="6.35016 0.0 0.0 0.0 6.35016 0.0 0.0 0.0 6.35016" Properties=species:S:1:pos:R:3 pbc="T T T"
O        0.11305939       4.80191816       0.57526506
H        0.54445618       4.52691787       6.12124575
H        5.95183421       5.54669578       0.33290707
3
Lattice="6.35016 0.0 0.0 0.0 6.35016 0.0 0.0 0.0 6.35016" Properties=species:S:1:pos:R:3 pbc="T T T"
O        0.11227813       4.79441893       0.57468205
H        0.57817743       4.53589503       6.15037755
H        5.93373702       5.54247724       0.35234612
3
Lattice="6.35016 0.0 0.0 0.0 6.35016 0.0 0.0 0.0 6.35016" Properties=species:S:1:pos:R:3 pbc="T T T"
O        0.11150125       4.78679157       0.57439483
H        0.61378341       4.54399161       6.17597219
H        5.91367877       5.54118207       0.37060709
3
Lattice="6.35016 0.0 0.0 0.0 6.35016 0.0 0.0 0.0 6.35016" Properties=species:S:1:pos:R:3 pbc="T T T"
O        0.11062626       4.77911626       0.57445154
H        0.65170733       4.55139526       6.19719500
H        5.89285113       5.54134971       0.38775391
3
Lattice="6.35016 0.0 0.0 0.0 6.35016 0.0 0.0 0.0 6.35016" Properties=species:S:1:pos:R:3 pbc="T T T"
O        0.10957887       4.77145663       0.57484271
H        0.69181551       4.55859603       6.21415265
H        5.87257812       5.54147214       0.40382846
3
Lattice="6.35016 0.0 0.0 0.0 6.35016 0.0 0.0 0.0 6.35016" Properties=species:S:1:pos:R:3 pbc="T T T"
O        0.10832998       4.76385104       0.57551138
H        0.73331622       4.56629274       6.22777127
H        5.85411509       5.54024116       0.41881693
3
Lattice="6.35016 0.0 0.0 0.0 6.35016 0.0 0.0 0.0 6.35016" Properties=species:S:1:pos:R:3 pbc="T T T"
O        0.10689574       4.75631359       0.57637411
H        0.77490329       4.57523446       6.23944648
H        5.83851472       5.53668228       0.43265405
3
Lattice="6.35016 0.0 0.0 0.0 6.35016 0.0 0.0 0.0 6.35016" Properties=species:S:1:pos:R:3 pbc="T T T"
O        0.10532464       4.74884123       0.57734340
H        0.81502653       4.58607946       6.25067484
H        5.82655991       5.53018968       0.44524572
3
Lattice="6.35016 0.0 0.0 0.0 6.35016 0.0 0.0 0.0 6.35016" Properties=species:S:1:pos:R:3 pbc="T T T"
O        0.10368268       4.74141821       0.57834311
H        0.85215121       4.59930836       6.26277157
H        5.81873486       5.52052722       0.45648360
3
Lattice="6.35016 0.0 0.0 0.0 6.35016 0.0 0.0 0.0 6.35016" Properties=species:S:1:pos:R:3 pbc="T T T"
O        0.10204225       4.73402066       0.57931684
H        0.88494528       4.61520446       6.27675602
H        5.81522665       5.50779343       0.46626405
3
Lattice="6.35016 0.0 0.0 0.0 6.35016 0.0 0.0 0.0 6.35016" Properties=species:S:1:pos:R:3 pbc="T T T"
O        0.10047611       4.72661656       0.58022504
H        0.91235682       4.63386727       6.29333585
H        5.81591939       5.49240363       0.47449640
3
Lattice="6.35016 0.0 0.0 0.0 6.35016 0.0 0.0 0.0 6.35016" Properties=species:S:1:pos:R:3 pbc="T T T"
O        0.09905526       4.71916446       0.58104694
H        0.93366358       4.65523441       6.31291593
H        5.82038914       5.47507868       0.48110889
3
Lattice="6.35016 0.0 0.0 0.0 6.35016 0.0 0.0 0.0 6.35016" Properties=species:S:1:pos:R:3 pbc="T T T"
O        0.09784962       4.71161253       0.58177677
H        0.94848346       4.67912105       6.33564677
H        5.82791179       5.45682813       0.48604830
3
Lattice="6.35016 0.0 0.0 0.0 6.35016 0.0 0.0 0.0 6.35016" Properties=species:S:1:pos:R:3 pbc="T T T"
O        0.09692211       4.70390007       0.58242105
H        0.95678870       4.70524865       0.01128271
H        5.83749234       5.43890112       0.48928713
3
Lattice="6.35016 0.0 0.0 0.0 6.35016 0.0 0.0 0.0 6.35016" Properties=species:S:1:pos:R:3 pbc="T T T"
O        0.09632583       4.69595964       0.58299930
H        0.95895049       4.73327845       0.03983005
H        5.84792426       5.42271119       0.49082285
3
Lattice="6.35016 0.0 0.0 0.0 6.35016 0.0 0.0 0.0 6.35016" Properties=species:S:1:pos:R:3 pbc="T T T"
O        0.09608872       4.68772742       0.58354256
H        0.95577395       4.76285210       0.07059924
H        5.85794773       5.40963780       0.49069528
3
Lattice="6.35016 0.0 0.0 0.0 6.35016 0.0 0.0 0.0 6.35016" Properties=species:S:1:pos:R:3 pbc="T T T"
O        0.09620029       4.67915381       0.58409051
H        0.94854264       4.79364466       0.10285640
H        5.86645110       5.40078943       0.48900125
3
Lattice="6.35016 0.0 0.0 0.0 6.35016 0.0 0.0 0.0 6.35016" Properties=species:S:1:pos:R:3 pbc="T T T"
O        0.09659705       4.67021908       0.58468800
H        0.93899511       4.82542823       0.13570597
H        5.87269744       5.39672050       0.48591945
3
Lattice="6.35016 0.0 0.0 0.0 6.35016 0.0 0.0 0.0 6.35016" Properties=species:S:1:pos:R:3 pbc="T T T"
O        0.09716475       4.66093819       0.58537788
H        0.92919681       4.85812596       0.16819993
H        5.87644626       5.39727309       0.48171952
3
Lattice="6.35016 0.0 0.0 0.0 6.35016 0.0 0.0 0.0 6.35016" Properties=species:S:1:pos:R:3 pbc="T T T"
O        0.09775817       4.65136113       0.58619083
H        0.92123352       4.89180708       0.19951110
H        5.87794089       5.40158034       0.47674976
3
Lattice="6.35016 0.0 0.0 0.0 6.35016 0.0 0.0 0.0 6.35016" Properties=species:S:1:pos:R:3 pbc="T T T"
O        0.09823755       4.64156620       0.58713408
H        0.91677304       4.92659485       0.22912431
H        5.87774715       5.40828027       0.47140102
3
Lattice="6.35016 0.0 0.0 0.0 6.35016 0.0 0.0 0.0 6.35016" Properties=species:S:1:pos:R:3 pbc="T T T"
O        0.09850933       4.63165246       0.58818681
H        0.91662026       4.96248341       0.25698761
H        5.87655110       5.41579638       0.46606237
3
Lattice="6.35016 0.0 0.0 0.0 6.35016 0.0 0.0 0.0 6.35016" Properties=species:S:1:pos:R:3 pbc="T T T"
O        0.09854997       4.62173808       0.58930152
H        0.92051894       4.99913304       0.28350397
H        5.87500147       5.42258502       0.46108118
3
Lattice="6.35016 0.0 0.0 0.0 6.35016 0.0 0.0 0.0 6.35016" Properties=species:S:1:pos:R:3 pbc="T T T"
O        0.09839694       4.61195287       0.59041895
H        0.92734333       5.03580553       0.30934252
H        5.87360659       5.42730382       0.45673793
3
Lattice="6.35016 0.0 0.0 0.0 6.35016 0.0 0.0 0.0 6.35016" Properties=species:S:1:pos:R:3 pbc="T T T"
O        0.09813061       4.60242807       0.59148153
H        0.93549166       5.07144689       0.33522342
H        5.87270493       5.42889638       0.45323499
3
Lattice="6.35016 0.0 0.0 0.0 6.35016 0.0 0.0 0.0 6.35016" Properties=species:S:1:pos:R:3 pbc="T T T"
O        0.09784282       4.59328447       0.59244338
H        0.94332681       5.10487222       0.36174353
H        5.87246058       5.42661438       0.45069607
3
Lattice="6.35016 0.0 0.0 0.0 6.35016 0.0 0.0 0.0 6.35016" Properties=species:S:1:pos:R:3 pbc="T T T"
O        0.09762247       4.58462019       0.59327665
H        0.94943566       5.13493502       0.38931021
H        5.87286699       5.42001746       0.44917260
3
Lattice="6.35016 0.0 0.0 0.0 6.35016 0.0 0.0 0.0 6.35016" Properties=species:S:1:pos:R:3 pbc="T T T"
O        0.09754684       4.57650672       0.59396882
H        0.95274587       5.16063927       0.41813600
H        5.87376039       5.40896170       0.44864865
3
Lattice="6.35016 0.0 0.0 0.0 6.35016 0.0 0.0 0.0 6.35016" Properties=species:S:1:pos:R:3 pbc="T T T"
O        0.09768032       4.56898432       0.59452217
H        0.95254870       5.18119365       0.44826707
H        5.87481598       5.39359139       0.44904191
3
Lattice="6.35016 0.0 0.0 0.0 6.35016 0.0 0.0 0.0 6.35016" Properties=species:S:1:pos:R:3 pbc="T T T"
O        0.09807701       4.56206201       0.59494979
H        0.94846428       5.19603214       0.47963692
H        5.87554872       5.37433314       0.45020863
3
Lattice="6.35016 0.0 0.0 0.0 6.35016 0.0 0.0 0.0 6.35016" Properties=species:S:1:pos:R:3 pbc="T T T"
O        0.09878283       4.55571820       0.59527295
H        0.94040605       5.20481885       0.51209824
H        5.87531034       5.35188214       0.45194603
3
Lattice="6.35016 0.0 0.0 0.0 6.35016 0.0 0.0 0.0 6.35016" Properties=species:S:1:pos:R:3 pbc="T T T"
O        0.09983626       4.54990120       0.59551997
H        0.92855685       5.20745550       0.54545290
H        5.87330426       5.32716694       0.45399923
3
Lattice="6.35016 0.0 0.0 0.0 6.35016 0.0 0.0 0.0 6.35016" Properties=species:S:1:pos:R:3 pbc="T T T"
O        0.10126568       4.54453442       0.59572254
H        0.91335380       5.20409595       0.57948639
H        5.86863264       5.30126692       0.45607414
3
Lattice="6.35016 0.0 0.0 0.0 6.35016 0.0 0.0 0.0 6.35016" Properties=species:S:1:pos:R:3 pbc="T T T"
O        0.10308424       4.53952084       0.59591298
H        0.89549817       5.19518102       0.61399392
H        5.86038823       5.27527585       0.45786463
3
Lattice="6.35016 0.0 0.0 0.0 6.35016 0.0 0.0 0.0 6.35016" Properties=species:S:1:pos:R:3 pbc="T T T"
O        0.10527676       4.53475448       0.59611867
H        0.87598000       5.18149014       0.64881541
H        5.84781618       5.25012001       0.45909593
3
Lattice="6.35016 0.0 0.0 0.0 6.35016 0.0 0.0 0.0 6.35016" Properties=species:S:1:pos:R:3 pbc="T T T"
O        0.10778971       4.53012775       0.59635667
H        0.85607745       5.16417078       0.68387820
H        5.83050647       5.22636158       0.45957111
3
Lattice="6.35016 0.0 0.0 0.0 6.35016 0.0 0.0 0.0 6.35016" Properties=species:S:1:pos:R:3 pbc="T T T"
O        0.11051914       4.52554275       0.59662738
H        0.83733070       5.14474056       0.71925043
H        5.80857321       5.20406102       0.45921258
3
Lattice="6.35016 0.0 0.0 0.0 6.35016 0.0 0.0 0.0 6.35016" Properties=species:S:1:pos:R:3 pbc="T T T"
O        0.11331714       4.52091386       0.59691193
H        0.82140005       5.12497473       0.75517557
H        5.78271967       5.18279555       0.45807762
3
Lattice="6.35016 0.0 0.0 0.0 6.35016 0.0 0.0 0.0 6.35016" Properties=species:S:1:pos:R:3 pbc="T T T"
O        0.11601164       4.51617651       0.59717298
H        0.80980066       5.10666494       0.79206822
H        5.75417627       5.16181627       0.45635057
3
Lattice="6.35016 0.0 0.0 0.0 6.35016 0.0 0.0 0.0 6.35016" Properties=species:S:1:pos:R:3 pbc="T T T"
O        0.11844464       4.51129349       0.59736393
H        0.80349368       5.09123195       0.83039861
H        5.72450255       5.14027913       0.45430524
3
Lattice="6.35016 0.0 0.0 0.0 6.35016 0.0 0.0 0.0 6.35016" Properties=species:S:1:pos:R:3 pbc="T T T"
O        0.12051111       4.50626887       0.59744433
H        0.80250731       5.07936623       0.87048908
H        5.69535315       5.11744071       0.45226379
3
Lattice="6.35016 0.0 0.0 0.0 6.35016 0.0 0.0 0.0 6.35016" Properties=species:S:1:pos:R:3 pbc="T T T"
O        0.12217854       4.50114594       0.59739549
H        0.80582616       5.07088668       0.91231047
H        5.66826032       5.09277853       0.45055700
3
Lattice="6.35016 0.0 0.0 0.0 6.35016 0.0 0.0 0.0 6.35016" Properties=species:S:1:pos:R:3 pbc="T T T"
O        0.12348140       4.49599628       0.59722728
H        0.81163097       5.06491378       0.95539059
H        5.64449625       5.06603338       0.44949868
3
Lattice="6.35016 0.0 0.0 0.0 6.35016 0.0 0.0 0.0 6.35016" Properties=species:S:1:pos:R:3 pbc="T T T"
O        0.12449686       4.49089659       0.59697397
H        0.81776116       5.06022431       0.99890963
H        5.62498976       5.03719882       0.44936221
3
Lattice="6.35016 0.0 0.0 0.0 6.35016 0.0 0.0 0.0 6.35016" Properties=species:S:1:pos:R:3 pbc="T T T"
O        0.12532085       4.48591114       0.59668453
H        0.82213674       5.05558419       1.04186345
H        5.61029136       5.00648348       0.45036852
3
Lattice="6.35016 0.0 0.0 0.0 6.35016 0.0 0.0 0.0 6.35016" Properties=species:S:1:pos:R:3 pbc="T T T"
O        0.12605201       4.48108115       0.59641217
H        0.82302303       5.04995001       1.08324242
H        5.60056120       4.97426677       0.45267884
3
Lattice="6.35016 0.0 0.0 0.0 6.35016 0.0 0.0 0.0 6.35016" Properties=species:S:1:pos:R:3 pbc="T T T"
O        0.12678571       4.47642331       0.59620674
H        0.81912378       5.04253969       1.12214560
H        5.59556928       4.94106413       0.45639000
3
Lattice="6.35016 0.0 0.0 0.0 6.35016 0.0 0.0 0.0 6.35016" Properties=species:S:1:pos:R:3 pbc="T T T"
O        0.12761472       4.47193095       0.59611295
H        0.80958247       5.03283544       1.15783617
H        5.59468731       4.90750125       0.46153249
3
Lattice="6.35016 0.0 0.0 0.0 6.35016 0.0 0.0 0.0 6.35016" Properties=species:S:1:pos:R:3 pbc="T T T"
O        0.12863024       4.46757849       0.59616610
H        0.79394501       5.02055207       1.18978084
H        5.59690066       4.87427220       0.46807029
3
Lattice="6.35016 0.0 0.0 0.0 6.35016 0.0 0.0 0.0 6.35016" Properties=species:S:1:pos:R:3 pbc="T T T"
O        0.12992370       4.46332680       0.59639122
H        0.77212256       5.00561065       1.21766769
H        5.60084391       4.84209727       0.47590557
3
Lattice="6.35016 0.0 0.0 0.0 6.35016 0.0 0.0 0.0 6.35016" Properties=species:S:1:pos:R:3 pbc="T T T"
O        0.13157970       4.45912674       0.59680074
H        0.74437096       4.98812904       1.24144415
H        5.60491145       4.81165086       0.48489485
3
Lattice="6.35016 0.0 0.0 0.0 6.35016 0.0 0.0 0.0 6.35016" Properties=species:S:1:pos:R:3 pbc="T T T"
O        0.13366477       4.45492414       0.59738844
H        0.71128256       4.96843319       1.26137006
H        5.60744319       4.78347196       0.49487565
3
Lattice="6.35016 0.0 0.0 0.0 6.35016 0.0 0.0 0.0 6.35016" Properties=species:S:1:pos:R:3 pbc="T T T"
O        0.13620947       4.45066572       0.59812398
H        0.67378423       4.94707856       1.27808635
H        5.60701659       4.75786773       0.50569302
3
Lattice="6.35016 0.0 0.0 0.0 6.35016 0.0 0.0 0.0 6.35016" Properties=species:S:1:pos:R:3 pbc="T T T"
O        0.13919144       4.44630107       0.59894773
H        0.63312327       4.92485871       1.29268156
H        5.60275315       4.73483875       0.51722085
3
Lattice="6.35016 0.0 0.0 0.0 6.35016 0.0 0.0 0.0 6.35016" Properties=species:S:1:pos:R:3 pbc="T T T"
O        0.14252502       4.44178623       0.59976721
H        0.59078714       4.90279381       1.30673231
H        5.59451611       4.71407392       0.52935715
3
Lattice="6.35016 0.0 0.0 0.0 6.35016 0.0 0.0 0.0 6.35016" Properties=species:S:1:pos:R:3 pbc="T T T"
O        0.14607610       4.43708451       0.60046738
H        0.54833136       4.88201730       1.32218351
H        5.58291113       4.69501772       0.54199809
3
Lattice="6.35016 0.0 0.0 0.0 6.35016 0.0 0.0 0.0 6.35016" Properties=species:S:1:pos:R:3 pbc="T T T"
O        0.14968750       4.43217457       0.60093228
H        0.50709749       4.86355414       1.34102463
H        5.56910232       4.67699114       0.55500449
3
Lattice="6.35016 0.0 0.0 0.0 6.35016 0.0 0.0 0.0 6.35016" Properties=species:S:1:pos:R:3 pbc="T T T"
O        0.15321768       4.42706072       0.60108233
H        0.46793504       4.84801301       1.36473752
H        5.55450553       4.65931814       0.56817695
3
Lattice="6.35016 0.0 0.0 0.0 6.35016 0.0 0.0 0.0 6.35016" Properties=species:S:1:pos:R:3 pbc="T T T"
O        0.15656377       4.42178253       0.60090789
H        0.43107699       4.83534298       1.39372588
H        5.54052946       4.64141094       0.58124964
3
Lattice="6.35016 0.0 0.0 0.0 6.35016 0.0 0.0 0.0 6.35016" Properties=species:S:1:pos:R:3 pbc="T T T"
O        0.15966703       4.41641296       0.60048453
H        0.39627151       4.82483957       1.42711775
H        5.52838554       4.62281291       0.59390964
3
Lattice="6.35016 0.0 0.0 0.0 6.35016 0.0 0.0 0.0 6.35016" Properties=species:S:1:pos:R:3 pbc="T T T"
O        0.16249558       4.41104053       0.59994889
H        0.36309612       4.81539593       1.46305121
H        5.51900623       4.60320152       0.60581307
3
Lattice="6.35016 0.0 0.0 0.0 6.35016 0.0 0.0 0.0 6.35016" Properties=species:S:1:pos:R:3 pbc="T T T"
O        0.16503297       4.40575136       0.59946692
H        0.33120536       4.80582681       1.49922286
H        5.51300336       4.58238023       0.61661489
3
Lattice="6.35016 0.0 0.0 0.0 6.35016 0.0 0.0 0.0 6.35016" Properties=species:S:1:pos:R:3 pbc="T T T"
O        0.16726995       4.40061497       0.59919926
H        0.30045344       4.79511021       1.53338996
H        5.51067418       4.56025856       0.62598480
3
Lattice="6.35016 0.0 0.0 0.0 6.35016 0.0 0.0 0.0 6.35016" Properties=species:S:1:pos:R:3 pbc="T T T"
O        0.16920300       4.39567867       0.59928251
H        0.27090310       4.78249429       1.56367629
H        5.51201254       4.53682850       0.63361750
3
Lattice="6.35016 0.0 0.0 0.0 6.35016 0.0 0.0 0.0 6.35016" Properties=species:S:1:pos:R:3 pbc="T T T"
O        0.17083753       4.39096863       0.59982138
H        0.24277284       4.76750588       1.58868106
H        5.51671852       4.51213730       0.63923587
3
Lattice="6.35016 0.0 0.0 0.0 6.35016 0.0 0.0 0.0 6.35016" Properties=species:S:1:pos:R:3 pbc="T T T"
O        0.17219081       4.38649374       0.60089030
H        0.21636614       4.74991282       1.60745556
H        5.52421012       4.48627056       0.64259568
3
Lattice="6.35016 0.0 0.0 0.0 6.35016 0.0 0.0 0.0 6.35016" Properties=species:S:1:pos:R:3 pbc="T T T"
O        0.17329377       4.38225018       0.60253614
H        0.19203157       4.72967937       1.61946683
H        5.53363966       4.45933268       0.64348241
3
Lattice="6.35016 0.0 0.0 0.0 6.35016 0.0 0.0 0.0 6.35016" Properties=species:S:1:pos:R:3 pbc="T T T"
O        0.17419086       4.37822462       0.60477965
H        0.17012980       4.70693030       1.62457655
H        5.54393384       4.43142353       0.64170577
3
Lattice="6.35016 0.0 0.0 0.0 6.35016 0.0 0.0 0.0 6.35016" Properties=species:S:1:pos:R:3 pbc="T T T"
O        0.17493681       4.37439713       0.60761658
H        0.15099836       4.68192248       1.62302285
H        5.55388105       4.40261317       0.63709231
3
Lattice="6.35016 0.0 0.0 0.0 6.35016 0.0 0.0 0.0 6.35016" Properties=species:S:1:pos:R:3 pbc="T T T"
O        0.17558859       4.37074280       0.61101792
H        0.13492496       4.65503375       1.61543740
H        5.56227907       4.37292198       0.62948063
3
Lattice="6.35016 0.0 0.0 0.0 6.35016 0.0 0.0 0.0 6.35016" Properties=species:S:1:pos:R:3 pbc="T T T"
O        0.17619567       4.36723249       0.61492524
H        0.12211923       4.62675655       1.60289729
H        5.56812694       4.34232634       0.61872041
3
Lattice="6.35016 0.0 0.0 0.0 6.35016 0.0 0.0 0.0 6.35016" Properties=species:S:1:pos:R:3 pbc="T T T"
O        0.17678757       4.36383198       0.61924601
H        0.11267933       4.59768698       1.58700055
H        5.57085027       4.31078135       0.60469310
3
Lattice="6.35016 0.0 0.0 0.0 6.35016 0.0 0.0 0.0 6.35016" Properties=species:S:1:pos:R:3 pbc="T T T"
O        0.17736651       4.36050082       0.62384715
H        0.10655499       4.56850164       1.56992637
H        5.57046145       4.27825850       0.58734649
3
Lattice="6.35016 0.0 0.0 0.0 6.35016 0.0 0.0 0.0 6.35016" Properties=species:S:1:pos:R:3 pbc="T T T"
O        0.17790678       4.35719137       0.62855401
H        0.10351777       4.53990941       1.55441166
H        5.56760318       4.24480833       0.56674695
3
Lattice="6.35016 0.0 0.0 0.0 6.35016 0.0 0.0 0.0 6.35016" Properties=species:S:1:pos:R:3 pbc="T T T"
O        0.17836101       4.35385328       0.63316118
H        0.10316394       4.51254664       1.54350971
H        5.56343944       4.21060358       0.54312976
3
Lattice="6.35016 0.0 0.0 0.0 6.35016 0.0 0.0 0.0 6.35016" Properties=species:S:1:pos:R:3 pbc="T T T"
O        0.17867045       4.35044096       0.63746596
H        0.10496814       4.48683998       1.54003287
H        5.55943617       4.17593831       0.51692144
3
Lattice="6.35016 0.0 0.0 0.0 6.35016 0.0 0.0 0.0 6.35016" Properties=species:S:1:pos:R:3 pbc="T T T"
O        0.17877529       4.34692284       0.64131936
H        0.10838059       4.46289531       1.54574877
H        5.55710795       4.14121169       0.48873327
3
Lattice="6.35016 0.0 0.0 0.0 6.35016 0.0 0.0 0.0 6.35016" Properties=species:S:1:pos:R:3 pbc="T T T"
O        0.17862054       4.34328464       0.64467135
H        0.11291442       4.44048318       1.56070822
H        5.55781021       4.10688178       0.45931933
3
Lattice="6.35016 0.0 0.0 0.0 6.35016 0.0 0.0 0.0 6.35016" Properties=species:S:1:pos:R:3 pbc="T T T"
O        0.17816453       4.33952643       0.64757865
H        0.11818308       4.41915032       1.58319014
H        5.56260992       4.07339916       0.42950069
3
Lattice="6.35016 0.0 0.0 0.0 6.35016 0.0 0.0 0.0 6.35016" Properties=species:S:1:pos:R:3 pbc="T T T"
O        0.17738169       4.33565486       0.65017263
H        0.12386794       4.39839203       1.61028043
H        5.57220723       4.04116683       0.40008935
3
Lattice="6.35016 0.0 0.0 0.0 6.35016 0.0 0.0 0.0 6.35016" Properties=species:S:1:pos:R:3 pbc="T T T"
O        0.17627111       4.33167725       0.65261115
H        0.12968094       4.37777865       1.63869549
H        5.58693344       4.01049937       0.37183419
3
Lattice="6.35016 0.0 0.0 0.0 6.35016 0.0 0.0 0.0 6.35016" Properties=species:S:1:pos:R:3 pbc="T T T"
O        0.17485070       4.32760007       0.65504275
H        0.13533721       4.35701306       1.66544376
H        5.60676195       3.98158817       0.34537244
3
Lattice="6.35016 0.0 0.0 0.0 6.35016 0.0 0.0 0.0 6.35016" Properties=species:S:1:pos:R:3 pbc="T T T"
O        0.17316061       4.32343068       0.65758707
H        0.14056174       4.33591897       1.68812412
H        5.63134303       3.95448962       0.32118512
3
Lattice="6.35016 0.0 0.0 0.0 6.35016 0.0 0.0 0.0 6.35016" Properties=species:S:1:pos:R:3 pbc="T T T"
O        0.17125677       4.31918058       0.66033568
H        0.14509963       4.31440539       1.70497211
H        5.66003153       3.92910765       0.29957794
3
Lattice="6.35016 0.0 0.0 0.0 6.35016 0.0 0.0 0.0 6.35016" Properties=species:S:1:pos:R:3 pbc="T T T"
O        0.16920973       4.31486825       0.66335302
H        0.14873237       4.29244095       1.71484102
H        5.69192185       3.90517656       0.28065173
3
Lattice="6.35016 0.0 0.0 0.0 6.35016 0.0 0.0 0.0 6.35016" Properties=species:S:1:pos:R:3 pbc="T T T"
O        0.16709925       4.31052163       0.66668380
H        0.15128126       4.27002304       1.71713514
H        5.72590720       3.88225141       0.26429074
3
Lattice="6.35016 0.0 0.0 0.0 6.35016 0.0 0.0 0.0 6.35016" Properties=species:S:1:pos:R:3 pbc="T T T"
O        0.16501062       4.30617736       0.67035413
H        0.15262095       4.24716443       1.71177370
H        5.76076203       3.85972885       0.25016786
3
Lattice="6.35016 0.0 0.0 0.0 6.35016 0.0 0.0 0.0 6.35016" Properties=species:S:1:pos:R:3 pbc="T T T"
O        0.16302436       4.30188052       0.67436616
H        0.15267779       4.22386957       1.69921277
H        5.79526029       3.83688821       0.23777590
3
Lattice="6.35016 0.0 0.0 0.0 6.35016 0.0 0.0 0.0 6.35016" Properties=species:S:1:pos:R:3 pbc="T T T"
O        0.16120815       4.29767887       0.67869272
H        0.15143138       4.20010479       1.68049733
H        5.82835097       3.81298691       0.22651770
3
Lattice="6.35016 0.0 0.0 0.0 6.35016 0.0 0.0 0.0 6.35016" Properties=species:S:1:pos:R:3 pbc="T T T"
O        0.15960371       4.29361820       0.68325931
H        0.14891233       4.17575593       1.65737893
H        5.85932895       3.78739862       0.21583362
3
Lattice="6.35016 0.0 0.0 0.0 6.35016 0.0 0.0 0.0 6.35016" Properties=species:S:1:pos:R:3 pbc="T T T"
O        0.15822243       4.28973609       0.68793334
H        0.14519088       4.15058612       1.63236972
H        5.88795217       3.75976095       0.20533344
3
Lattice="6.35016 0.0 0.0 0.0 6.35016 0.0 0.0 0.0 6.35016" Properties=species:S:1:pos:R:3 pbc="T T T"
O        0.15704308       4.28605821       0.69252006
H        0.14035765       4.12417225       1.60869200
H        5.91445761       3.73008583       0.19490013
3
Lattice="6.35016 0.0 0.0 0.0 6.35016 0.0 0.0 0.0 6.35016" Properties=species:S:1:pos:R:3 pbc="T T T"
O        0.15602235       4.28259890       0.69678756
H        0.13450191       4.09589721       1.58988975
H        5.93945496       3.69876512       0.18469383
3
Lattice="6.35016 0.0 0.0 0.0 6.35016 0.0 0.0 0.0 6.35016" Properties=species:S:1:pos:R:3 pbc="T T T"
O        0.15510552       4.27935892       0.70051981
H        0.12769784       4.06505499       1.57902736
H        5.96373689       3.66648643       0.17508312
3
Lattice="6.35016 0.0 0.0 0.0 6.35016 0.0 0.0 0.0 6.35016" Properties=species:S:1:pos:R:3 pbc="T T T"
O        0.15423827       4.27631700       0.70359322
H        0.12002488       4.03113866       1.57763261
H        5.98809331       3.63410557       0.16652742
3
Lattice="6.35016 0.0 0.0 0.0 6.35016 0.0 0.0 0.0 6.35016" Properties=species:S:1:pos:R:3 pbc="T T T"
O        0.15337078       4.27341758       0.70601815
H        0.11161041       3.99415285       1.58509589
H        6.01319651       3.60251067       0.15947246
3
Lattice="6.35016 0.0 0.0 0.0 6.35016 0.0 0.0 0.0 6.35016" Properties=species:S:1:pos:R:3 pbc="T T T"
O        0.15245998       4.27056928       0.70792587
H        0.10265612       3.95473880       1.59896997
H        6.03953773       3.57251727       0.15427587
3
Lattice="6.35016 0.0 0.0 0.0 6.35016 0.0 0.0 0.0 6.35016" Properties=species:S:1:pos:R:3 pbc="T T T"
O        0.15146999       4.26765786       0.70950820
H        0.09343092       3.91404272       1.61594522
H        6.06742078       3.54481540       0.15117070
3
Lattice="6.35016 0.0 0.0 0.0 6.35016 0.0 0.0 0.0 6.35016" Properties=species:S:1:pos:R:3 pbc="T T T"
O        0.15037388       4.26456628       0.71096112
H        0.08423195       3.87341916       1.63279829
H        6.09697728       3.51993452       0.15024593
3
Lattice="6.35016 0.0 0.0 0.0 6.35016 0.0 0.0 0.0 6.35016" Properties=species:S:1:pos:R:3 pbc="T T T"
O        0.14915421       4.26118882       0.71245118
H        0.07534344       3.83419187       1.64693565
H        6.12819860       3.49822555       0.15144077
3
Lattice="6.35016 0.0 0.0 0.0 6.35016 0.0 0.0 0.0 6.35016" Properties=species:S:1:pos:R:3 pbc="T T T"
O        0.14780321       4.25744394       0.71410572
H        0.06701070       3.79751252       1.65652636
H        6.16096752       3.47985434       0.15454505
3
Lattice="6.35016 0.0 0.0 0.0 6.35016 0.0 0.0 0.0 6.35016" Properties=species:S:1:pos:R:3 pbc="T T T"
O        0.14632096       4.25327309       0.71601864
H        0.05943064       3.76432278       1.66041837
H        6.19508350       3.46480738       0.15921039
3
Lattice="6.35016 0.0 0.0 0.0 6.35016 0.0 0.0 0.0 6.35016" Properties=species:S:1:pos:R:3 pbc="T T T"
O        0.14471424       4.24864338       0.71825580
H        0.05275002       3.73535208       1.65803998
H        6.23029267       3.45289105       0.16494877
3
Lattice="6.35016 0.0 0.0 0.0 6.35016 0.0 0.0 0.0 6.35016" Properties=species:S:1:pos:R:3 pbc="T T T"
O        0.14299424       4.24354611       0.72086108
H        0.04705964       3.71111587       1.64929747
H        6.26632043       3.44373247       0.17114577
3
Lattice="6.35016 0.0 0.0 0.0 6.35016 0.0 0.0 0.0 6.35016" Properties=species:S:1:pos:R:3 pbc="T T T"
O        0.14117530       4.23799366       0.72385931
H        0.04239360       3.69191743       1.63451575
H        6.30289970       3.43682267       0.17708805
3
Lattice="6.35016 0.0 0.0 0.0 6.35016 0.0 0.0 0.0 6.35016" Properties=species:S:1:pos:R:3 pbc="T T T"
O        0.13927317       4.23202006       0.72725373
H        0.03872410       3.67782718       1.61442766
H        6.33981178       3.43156411       0.18199527
3
Lattice="6.35016 0.0 0.0 0.0 6.35016 0.0 0.0 0.0 6.35016" Properties=species:S:1:pos:R:3 pbc="T T T"
O        0.13730316       4.22567581       0.73102000
H        0.03594756       3.66863088       1.59019754
H        0.02675126       3.42735141       0.18508538
3
Lattice="6.35016 0.0 0.0 0.0 6.35016 0.0 0.0 0.0 6.35016" Properties=species:S:1:pos:R:3 pbc="T T T"
O        0.13528108       4.21902757       0.73509947
H        0.03387017       3.66375777       1.56347918
H        0.06398085       3.42368406       0.18565995
3
Lattice="6.35016 0.0 0.0 0.0 6.35016 0.0 0.0 0.0 6.35016" Properties=species:S:1:pos:R:3 pbc="T T T"
O        0.13322382       4.21215740       0.73938609
H        0.03219049       3.66218382       1.53647589
H        0.10137199       3.42027460       0.18320224
3
Lattice="6.35016 0.0 0.0 0.0 6.35016 0.0 0.0 0.0 6.35016" Properties=species:S:1:pos:R:3 pbc="T T T"
O        0.13115201       4.20515965       0.74372560
H        0.03049614       3.66239306       1.51189943
H        0.13900672       3.41712664       0.17747529
3
Lattice="6.35016 0.0 0.0 0.0 6.35016 0.0 0.0 0.0 6.35016" Properties=species:S:1:pos:R:3 pbc="T T T"
O        0.12909183       4.19813675       0.74792026
H        0.02827987       3.66243281       1.49280323
H        0.17696842       3.41455298       0.16857674
3
Lattice="6.35016 0.0 0.0 0.0 6.35016 0.0 0.0 0.0 6.35016" Properties=species:S:1:pos:R:3 pbc="T T T"
O        0.12707426       4.19118269       0.75176261
H        0.02501588       3.66023921       1.48206340
H        0.21528763       3.41311645       0.15695360
3
Lattice="6.35016 0.0 0.0 0.0 6.35016 0.0 0.0 0.0 6.35016" Properties=species:S:1:pos:R:3 pbc="T T T"
O        0.12512978       4.18435424       0.75508616
H        0.02028851       3.65420338       1.48158752
H        0.25389457       3.41351276       0.14335785
3
Lattice="6.35016 0.0 0.0 0.0 6.35016 0.0 0.0 0.0 6.35016" Properties=species:S:1:pos:R:3 pbc="T T T"
O        0.12327997       4.17764409       0.75781895
H        0.01392952       3.64375838       1.49157073
H        0.29260813       3.41643555       0.12875311
3
Lattice="6.35016 0.0 0.0 0.0 6.35016 0.0 0.0 0.0 6.35016" Properties=species:S:1:pos:R:3 pbc="T T T"
O        0.12153368       4.17097635       0.75999890
H        0.00608110       3.62954749       1.51034695
H        0.33114338       3.42246115       0.11419721
3
Lattice="6.35016 0.0 0.0 0.0 6.35016 0.0 0.0 0.0 6.35016" Properties=species:S:1:pos:R:3 pbc="T T T"
O        0.11988785       4.16423375       0.76174684
H        6.34730376       3.61306578       1.53495166
H        0.36914744       3.43197115       0.10072427
3
Lattice="6.35016 0.0 0.0 0.0 6.35016 0.0 0.0 0.0 6.35016" Properties=species:S:1:pos:R:3 pbc="T T T"
O        0.11833218       4.15729697       0.76321538
H        6.33780691       3.59604995       1.56203376
H        0.40625358       3.44511776       0.08924750
3
Lattice="6.35016 0.0 0.0 0.0 6.35016 0.0 0.0 0.0 6.35016" Properties=species:S:1:pos:R:3 pbc="T T T"
O        0.11685361       4.15007436       0.76455152
H        6.32829964       3.58004456       1.58851691
H        0.44212024       3.46183037       0.08049653
3
Lattice="6.35016 0.0 0.0 0.0 6.35016 0.0 0.0 0.0 6.35016" Properties=species:S:1:pos:R:3 pbc="T T T"
O        0.11543784       4.14251005       0.76587946
H        6.31928724       3.56621455       1.61190086
H        0.47647187       3.48183038       0.07498561
3
Lattice="6.35016 0.0 0.0 0.0 6.35016 0.0 0.0 0.0 6.35016" Properties=species:S:1:pos:R:3 pbc="T T T"
O        0.11406958       4.13458600       0.76729618
H        6.31119936       3.55532396       1.63033976
H        0.50913119       3.50466391       0.07299960
3
Lattice="6.35016 0.0 0.0 0.0 6.35016 0.0 0.0 0.0 6.35016" Properties=species:S:1:pos:R:3 pbc="T T T"
O        0.11273045       4.12631244       0.76887680
H        6.30438443       3.54778346       1.64258300
H        0.54003970       3.52973586       0.07459723
3
Lattice="6.35016 0.0 0.0 0.0 6.35016 0.0 0.0 0.0 6.35016" Properties=species:S:1:pos:R:3 pbc="T T T"
O        0.11139851       4.11772582       0.77067599
H        6.29911532       3.54372152       1.64789884
H        0.56928067       3.55635300       0.07962097
3
Lattice="6.35016 0.0 0.0 0.0 6.35016 0.0 0.0 0.0 6.35016" Properties=species:S:1:pos:R:3 pbc="T T T"
O        0.11004738       4.10888024       0.77273230
H        6.29558412       3.54301595       1.64602961
H        0.59708694       3.58375820       0.08771813
3
Lattice="6.35016 0.0 0.0 0.0 6.35016 0.0 0.0 0.0 6.35016" Properties=species:S:1:pos:R:3 pbc="T T T"
O        0.10864711       4.09984472       0.77506395
H        6.29389841       3.54530773       1.63718580
H        0.62382524       3.61119007       0.09838557
3
Lattice="6.35016 0.0 0.0 0.0 6.35016 0.0 0.0 0.0 6.35016" Properties=species:S:1:pos:R:3 pbc="T T T"
O        0.10716727       4.09070246       0.77766212
H        6.29405983       3.54996182       1.62210983
H        0.64997545       3.63794824       0.11102709
3
Lattice="6.35016 0.0 0.0 0.0 6.35016 0.0 0.0 0.0 6.35016" Properties=species:S:1:pos:R:3 pbc="T T T"
O        0.10558328       4.08154997       0.78047842
H        6.29593878       3.55600902       1.60217051
H        0.67606159       3.66346420       0.12505167
3
Lattice="6.35016 0.0 0.0 0.0 6.35016 0.0 0.0 0.0 6.35016" Properties=species:S:1:pos:R:3 pbc="T T T"
O        0.10388328       4.07249795       0.78341143
H        6.29924556       3.56206345       1.57948222
H        0.70256570       3.68735344       0.13996807
3
Lattice="6.35016 0.0 0.0 0.0 6.35016 0.0 0.0 0.0 6.35016" Properties=species:S:1:pos:R:3 pbc="T T T"
O        0.10207501       4.06367345       0.78629758
H        6.30351884       3.56627240       1.55696347
H        0.72982713       3.70944114       0.15547160
3
Lattice="6.35016 0.0 0.0 0.0 6.35016 0.0 0.0 0.0 6.35016" Properties=species:S:1:pos:R:3 pbc="T T T"
O        0.10018692       4.05521421       0.78892197
H        6.30817242       3.56641960       1.53812794
H        0.75797186       3.72975232       0.17148759
3
Lattice="6.35016 0.0 0.0 0.0 6.35016 0.0 0.0 0.0 6.35016" Properties=species:S:1:pos:R:3 pbc="T T T"
O        0.09826288       4.04724806       0.79105810
H        6.31264148       3.56030312       1.52642009
H        0.78688382       3.74845804       0.18817042
3
Lattice="6.35016 0.0 0.0 0.0 6.35016 0.0 0.0 0.0 6.35016" Properties=species:S:1:pos:R:3 pbc="T T T"
O        0.09634323       4.03985209       0.79254639
H        6.31660639       3.54644993       1.52409460
H        0.81624049       3.76579798       0.20582894
3
Lattice="6.35016 0.0 0.0 0.0 6.35016 0.0 0.0 0.0 6.35016" Properties=species:S:1:pos:R:3 pbc="T T T"
O        0.09445196       4.03301627       0.79335591
H        6.32015270       3.52477639       1.53126977
H        0.84556914       3.78201870       0.22484500
3
Lattice="6.35016 0.0 0.0 0.0 6.35016 0.0 0.0 0.0 6.35016" Properties=species:S:1:pos:R:3 pbc="T T T"
O        0.09259391       4.02663976       0.79359137
H        6.32373400       3.49668227       1.54588460
H        0.87433480       3.79733669       0.24559942
3
Lattice="6.35016 0.0 0.0 0.0 6.35016 0.0 0.0 0.0 6.35016" Properties=species:S:1:pos:R:3 pbc="T T T"
O        0.09076595       4.02056475       0.79344030
H        6.32795286       3.46451242       1.56462310
H        0.90198809       3.81192535       0.26841434
3
Lattice="6.35016 0.0 0.0 0.0 6.35016 0.0 0.0 0.0 6.35016" Properties=species:S:1:pos:R:3 pbc="T T T"
O        0.08896758       4.01462373       0.79310203
H        6.33333328       3.43080202       1.58406233
H        0.92800597       3.82591907       0.29351951
3
Lattice="6.35016 0.0 0.0 0.0 6.35016 0.0 0.0 0.0 6.35016" Properties=species:S:1:pos:R:3 pbc="T T T"
O        0.08720624       4.00867084       0.79274693
H        6.34020879       3.39777846       1.60135801
H        0.95193039       3.83942866       0.32103259
3
Lattice="6.35016 0.0 0.0 0.0 6.35016 0.0 0.0 0.0 6.35016" Properties=species:S:1:pos:R:3 pbc="T T T"
O        0.08549665       4.00259062       0.79250410
H        6.34870969       3.36717869       1.61444734
H        0.97339355       3.85254587       0.35095766
3
Lattice="6.35016 0.0 0.0 0.0 6.35016 0.0 0.0 0.0 6.35016" Properties=species:S:1:pos:R:3 pbc="T T T"
O        0.08385907       3.99629844       0.79246415
H        0.00863558       3.34026176       1.62198835
H        0.99212588       3.86535763       0.38319018
3
Lattice="6.35016 0.0 0.0 0.0 6.35016 0.0 0.0 0.0 6.35016" Properties=species:S:1:pos:R:3 pbc="T T T"
O        0.08231516       3.98973631       0.79268723
H        0.02012899       3.31787694       1.62322231
H        1.00796185       3.87795279       0.41751337
3
Lattice="6.35016 0.0 0.0 0.0 6.35016 0.0 0.0 0.0 6.35016" Properties=species:S:1:pos:R:3 pbc="T T T"
O        0.08088523       3.98286741       0.79321131
H        0.03275025       3.30051611       1.61786119
H        1.02086156       3.89042724       0.45361244
3
Lattice="6.35016 0.0 0.0 0.0 6.35016 0.0 0.0 0.0 6.35016" Properties=species:S:1:pos:R:3 pbc="T T T"
O        0.07958592       3.97567471       0.79405303
H        0.04613798       3.28833656       1.60602919
H        1.03091495       3.90289489       0.49109896
3
Lattice="6.35016 0.0 0.0 0.0 6.35016 0.0 0.0 0.0 6.35016" Properties=species:S:1:pos:R:3 pbc="T T T"
O        0.07843045       3.96816075       0.79520869
H        0.05986842       3.28115485       1.58823598
H        1.03833803       3.91549799       0.52952117
3
Lattice="6.35016 0.0 0.0 0.0 6.35016 0.0 0.0 0.0 6.35016" Properties=species:S:1:pos:R:3 pbc="T T T"
O        0.07742737       3.96035056       0.79665189
H        0.07347135       3.27840383       1.56540004
H        1.04346229       3.92841390       0.56838745
3
Lattice="6.35016 0.0 0.0 0.0 6.35016 0.0 0.0 0.0 6.35016" Properties=species:S:1:pos:R:3 pbc="T T T"
O        0.07658198       3.95229501       0.79832783
H        0.08644492       3.27904768       1.53890813
H        1.04670570       3.94185991       0.60719100
3
Lattice="6.35016 0.0 0.0 0.0 6.35016 0.0 0.0 0.0 6.35016" Properties=species:S:1:pos:R:3 pbc="T T T"
O        0.07589629       3.94407904       0.80014753
H        0.09828905       3.28148023       1.51067271
H        1.04853810       3.95609640       0.64543115
3
Lattice="6.35016 0.0 0.0 0.0 6.35016 0.0 0.0 0.0 6.35016" Properties=species:S:1:pos:R:3 pbc="T T T"
O        0.07536935       3.93582307       0.80198755
H        0.10855751       3.28348441       1.48312445
H        1.04942135       3.97141242       0.68265725
3
Lattice="6.35016 0.0 0.0 0.0 6.35016 0.0 0.0 0.0 6.35016" Properties=species:S:1:pos:R:3 pbc="T T T"
O        0.07499774       3.92767810       0.80369828
H        0.11690829       3.28234392       1.45903632
H        1.04975016       3.98810483       0.71849050
3
Lattice="6.35016 0.0 0.0 0.0 6.35016 0.0 0.0 0.0 6.35016" Properties=species:S:1:pos:R:3 pbc="T T T"
O        0.07477828       3.91980086       0.80513317
H        0.12313652       3.27528432       1.44102022
H        1.04978254       4.00644473       0.75265741
3
Lattice="6.35016 0.0 0.0 0.0 6.35016 0.0 0.0 0.0 6.35016" Properties=species:S:1:pos:R:3 pbc="T T T"
O        0.07471084       3.91230691       0.80619599
H        0.12716189       3.26025882       1.43076719
H        1.04959172       4.02662210       0.78501065
3
Lattice="6.35016 0.0 0.0 0.0 6.35016 0.0 0.0 0.0 6.35016" Properties=species:S:1:pos:R:3 pbc="T T T"
O        0.07480520       3.90522622       0.80688041
H        0.12897562       3.23672640       1.42840315
H        1.04903786       4.04869901       0.81552495
3
Lattice="6.35016 0.0 0.0 0.0 6.35016 0.0 0.0 0.0 6.35016" Properties=species:S:1:pos:R:3 pbc="T T T"
O        0.07507991       3.89848972       0.80727393
H        0.12860414       3.20587555       1.43244509
H        1.04779101       4.07258278       0.84427778
3
Lattice="6.35016 0.0 0.0 0.0 6.35016 0.0 0.0 0.0 6.35016" Properties=species:S:1:pos:R:3 pbc="T T T"
O        0.07555979       3.89196099       0.80752318
H        0.12612821       3.17013596       1.44041435
H        1.04538449       4.09802534       0.87141068
3
Lattice="6.35016 0.0 0.0 0.0 6.35016 0.0 0.0 0.0 6.35016" Properties=species:S:1:pos:R:3 pbc="T T T"
O        0.07626631       3.88548332       0.80778353
H        0.12171275       3.13238311       1.44963707
H        1.04129511       4.12465384       0.89709498
3
Lattice="6.35016 0.0 0.0 0.0 6.35016 0.0 0.0 0.0 6.35016" Properties=species:S:1:pos:R:3 pbc="T T T"
O        0.07721528       3.87891770       0.80818899
H        0.11561978       3.09528986       1.45781696
H        1.03502604       4.15201294       0.92150277
3
Lattice="6.35016 0.0 0.0 0.0 6.35016 0.0 0.0 0.0 6.35016" Properties=species:S:1:pos:R:3 pbc="T T T"
O        0.07841108       3.87215853       0.80883671
H        0.10818025       3.06104078       1.46322724
H        1.02616458       4.17961143       0.94479357
3
Lattice="6.35016 0.0 0.0 0.0 6.35016 0.0 0.0 0.0 6.35016" Properties=species:S:1:pos:R:3 pbc="T T T"
O        0.07984952       3.86513379       0.80979107
H        0.09976305       3.03128958       1.46469850
H        1.01441615       4.20695547       0.96711318
3
Lattice="6.35016 0.0 0.0 0.0 6.35016 0.0 0.0 0.0 6.35016" Properties=species:S:1:pos:R:3 pbc="T T T"
O        0.08151580       3.85780107       0.81108612
H        0.09074855       3.00718444       1.46154063
H        0.99963088       4.23358633       0.98859831
3
Lattice="6.35016 0.0 0.0 0.0 6.35016 0.0 0.0 0.0 6.35016" Properties=species:S:1:pos:R:3 pbc="T T T"
O        0.08338732       3.85014208       0.81273183
H        0.08150888       2.98944139       1.45345593
H        0.98181043       4.25910940       1.00938244
3
Lattice="6.35016 0.0 0.0 0.0 6.35016 0.0 0.0 0.0 6.35016" Properties=species:S:1:pos:R:3 pbc="T T T"
O        0.08543378       3.84215631       0.81471791
H        0.07238960       2.97837649       1.44047601
H        0.96109100       4.28319581       1.02960396
3
Lattice="6.35016 0.0 0.0 0.0 6.35016 0.0 0.0 0.0 6.35016" Properties=species:S:1:pos:R:3 pbc="T T T"
O        0.08761925       3.83386357       0.81701406
H        0.06369922       2.97391588       1.42293496
H        0.93772914       4.30560483       1.04941392
3
Lattice="6.35016 0.0 0.0 0.0 6.35016 0.0 0.0 0.0 6.35016" Properties=species:S:1:pos:R:3 pbc="T T T"
O        0.08990506       3.82530540       0.81956892
H        0.05569833       2.97553346       1.40148742
H        0.91207970       4.32619668       1.06898162
3
Lattice="6.35016 0.0 0.0 0.0 6.35016 0.0 0.0 0.0 6.35016" Properties=species:S:1:pos:R:3 pbc="T T T"
O        0.09225271       3.81655170       0.82230775
H        0.04857847       2.98214861       1.37714656
H        0.88456198       4.34492153       1.08849064
3
Lattice="6.35016 0.0 0.0 0.0 6.35016 0.0 0.0 0.0 6.35016" Properties=species:S:1:pos:R:3 pbc="T T T"
O        0.09462761       3.80771031       0.82512887
H        0.04243875       2.99198730       1.35134434
H        0.85563123       4.36181632       1.10813746
3
Lattice="6.35016 0.0 0.0 0.0 6.35016 0.0 0.0 0.0 6.35016" Properties=species:S:1:pos:R:3 pbc="T T T"
O        0.09700308       3.79893667       0.82790147
H        0.03725944       3.00246786       1.32596478
H        0.82573531       4.37698348       1.12812453
3
Lattice="6.35016 0.0 0.0 0.0 6.35016 0.0 0.0 0.0 6.35016" Properties=species:S:1:pos:R:3 pbc="T T T"
O        0.09936343       3.79042822       0.83047215
H        0.03288195       3.01027042       1.30325585
H        0.79527912       4.39056686       1.14865676
3
Lattice="6.35016 0.0 0.0 0.0 6.35016 0.0 0.0 0.0 6.35016" Properties=species:S:1:pos:R:3 pbc="T T T"
O        0.10170410       3.78240149       0.83268454
H        0.02903554       3.01178652       1.28551598
H        0.76461591       4.40272125       1.16993716
3
Lattice="6.35016 0.0 0.0 0.0 6.35016 0.0 0.0 0.0 6.35016" Properties=species:S:1:pos:R:3 pbc="T T T"
O        0.10402534       3.77502857       0.83441718
H        0.02544058       3.00414550       1.27448092
H        0.73401506       4.41358377       1.19216812
3
Lattice="6.35016 0.0 0.0 0.0 6.35016 0.0 0.0 0.0 6.35016" Properties=species:S:1:pos:R:3 pbc="T T T"
O        0.10632333       3.76836275       0.83562429
H        0.02195752       2.98638455       1.27071585
H        0.70366561       4.42324738       1.21554369
3
Lattice="6.35016 0.0 0.0 0.0 6.35016 0.0 0.0 0.0 6.35016" Properties=species:S:1:pos:R:3 pbc="T T T"
O        0.10858558       3.76231454       0.83634338
H        0.01868274       2.95993315       1.27344197
H        0.67366682       4.43173628       1.24022689
3
Lattice="6.35016 0.0 0.0 0.0 6.35016 0.0 0.0 0.0 6.35016" Properties=species:S:1:pos:R:3 pbc="T T T"
O        0.11079302       3.75668747       0.83667441
H        0.01591699       2.92801210       1.28095345
H        0.64402294       4.43897736       1.26632941
3
Lattice="6.35016 0.0 0.0 0.0 6.35016 0.0 0.0 0.0 6.35016" Properties=species:S:1:pos:R:3 pbc="T T T"
O        0.11292959       3.75125478       0.83673899
H        0.01402858       2.89441937       1.29127913
H        0.61462881       4.44478662       1.29387145
3
Lattice="6.35016 0.0 0.0 0.0 6.35016 0.0 0.0 0.0 6.35016" Properties=species:S:1:pos:R:3 pbc="T T T"
O        0.11498781       3.74582165       0.83665219
H        0.01333165       2.86255846       1.30268090
H        0.58528701       4.44887644       1.32275839
3
Lattice="6.35016 0.0 0.0 0.0 6.35016 0.0 0.0 0.0 6.35016" Properties=species:S:1:pos:R:3 pbc="T T T"
O        0.11697096       3.74024665       0.83651267
H        0.01403131       2.83506570       1.31380822
H        0.55574092       4.45086956       1.35275661
3
Lattice="6.35016 0.0 0.0 0.0 6.35016 0.0 0.0 0.0 6.35016" Properties=species:S:1:pos:R:3 pbc="T T T"
O        0.11889087       3.73444331       0.83640320
H        0.01621640       2.81374866       1.32369530
H        0.52571489       4.45034752       1.38351349
3
Lattice="6.35016 0.0 0.0 0.0 6.35016 0.0 0.0 0.0 6.35016" Properties=species:S:1:pos:R:3 pbc="T T T"
O        0.12076436       3.72836893       0.83639335
H        0.01987581       2.79969677       1.33168780
H        0.49495255       4.44690408       1.41456532
3
Lattice="6.35016 0.0 0.0 0.0 6.35016 0.0 0.0 0.0 6.35016" Properties=species:S:1:pos:R:3 pbc="T T T"
O        0.12260971       3.72201395       0.83654188
H        0.02491968       2.79340205       1.33737672
H        0.46326036       4.44019939       1.44538195
3
Lattice="6.35016 0.0 0.0 0.0 6.35016 0.0 0.0 0.0 6.35016" Properties=species:S:1:pos:R:3 pbc="T T T"
O        0.12444339       3.71539448       0.83689603
H        0.03119643       2.79483312       1.34056018
H        0.43051945       4.43000091       1.47540710
3
Lattice="6.35016 0.0 0.0 0.0 6.35016 0.0 0.0 0.0 6.35016" Properties=species:S:1:pos:R:3 pbc="T T T"
O        0.12628004       3.70854913       0.83749060
H        0.03850527       2.80345511       1.34123488
H        0.39669475       4.41622607       1.50409521
3
Lattice="6.35016 0.0 0.0 0.0 6.35016 0.0 0.0 0.0 6.35016" Properties=species:S:1:pos:R:3 pbc="T T T"
O        0.12813175       3.70153874       0.83834203
H        0.04660230       2.81819650       1.33962080
H        0.36183847       4.39896374       1.53094991
3
Lattice="6.35016 0.0 0.0 0.0 6.35016 0.0 0.0 0.0 6.35016" Properties=species:S:1:pos:R:3 pbc="T T T"
O        0.13000822       3.69445241       0.83944562
H        0.05520543       2.83736624       1.33622086
H        0.32607360       4.37848250       1.55555729
3
Lattice="6.35016 0.0 0.0 0.0 6.35016 0.0 0.0 0.0 6.35016" Properties=species:S:1:pos:R:3 pbc="T T T"
O        0.13191778       3.68740996       0.84076753
H        0.06400441       2.85858193       1.33187792
H        0.28957784       4.35524752       1.57761749
3
Lattice="6.35016 0.0 0.0 0.0 6.35016 0.0 0.0 0.0 6.35016" Properties=species:S:1:pos:R:3 pbc="T T T"
O        0.13386728       3.68056315       0.84224299
H        0.07267923       2.87878249       1.32779883
H        0.25256383       4.32990263       1.59696408
3
Lattice="6.35016 0.0 0.0 0.0 6.35016 0.0 0.0 0.0 6.35016" Properties=species:S:1:pos:R:3 pbc="T T T"
O        0.13586129       3.67408230       0.84377929
H        0.08093857       2.89443989       1.32546896
H        0.21525055       4.30324841       1.61358696
3
Lattice="6.35016 0.0 0.0 0.0 6.35016 0.0 0.0 0.0 6.35016" Properties=species:S:1:pos:R:3 pbc="T T T"
O        0.13790039       3.66812312       0.84527704
H        0.08858289       2.90217273       1.32633500
H        0.17782899       4.27617603       1.62763294
3
Lattice="6.35016 0.0 0.0 0.0 6.35016 0.0 0.0 0.0 6.35016" Properties=species:S:1:pos:R:3 pbc="T T T"
O        0.13997861       3.66277280       0.84666334
H        0.09556261       2.89966150       1.33127332
H        0.14044173       4.24959832       1.63938594
3
Lattice="6.35016 0.0 0.0 0.0 6.35016 0.0 0.0 0.0 6.35016" Properties=species:S:1:pos:R:3 pbc="T T T"
O        0.14208369       3.65800910       0.84792607
H        0.10199875       2.88643837       1.34012087
H        0.10316178       4.22434253       1.64920863
3
Lattice="6.35016 0.0 0.0 0.0 6.35016 0.0 0.0 0.0 6.35016" Properties=species:S:1:pos:R:3 pbc="T T T"
O        0.14419994       3.65370026       0.84912073
H        0.10814157       2.86397576       1.35163479
H        0.06599436       4.20105408       1.65746701
3
Lattice="6.35016 0.0 0.0 0.0 6.35016 0.0 0.0 0.0 6.35016" Properties=species:S:1:pos:R:3 pbc="T T T"
O        0.14631080       3.64964860       0.85034726
H        0.11428446       2.83502912       1.36392820
H        0.02890980       4.18013290       1.66443961
3
Lattice="6.35016 0.0 0.0 0.0 6.35016 0.0 0.0 0.0 6.35016" Properties=species:S:1:pos:R:3 pbc="T T T"
O        0.14840279       3.64565073       0.85172042
H        0.12069076       2.80274288       1.37504504
H        6.34202506       4.16171058       1.67024937
3
Lattice="6.35016 0.0 0.0 0.0 6.35016 0.0 0.0 0.0 6.35016" Properties=species:S:1:pos:R:3 pbc="T T T"
O        0.15046456       3.64153126       0.85334599
H        0.12755306       2.76999936       1.38335200
H        6.30500922       4.14568322       1.67484848
3
Lattice="6.35016 0.0 0.0 0.0 6.35016 0.0 0.0 0.0 6.35016" Properties=species:S:1:pos:R:3 pbc="T T T"
O        0.15248607       3.63716216       0.85531004
H        0.13498992       2.73915047       1.38767519
H        6.26806627       4.13175980       1.67802051
3
Lattice="6.35016 0.0 0.0 0.0 6.35016 0.0 0.0 0.0 6.35016" Properties=species:S:1:pos:R:3 pbc="T T T"
O        0.15445691       3.63245751       0.85767928
H        0.14305615       2.71197775       1.38728085
H        6.23130469       4.11952964       1.67943894
3
Lattice="6.35016 0.0 0.0 0.0 6.35016 0.0 0.0 0.0 6.35016" Properties=species:S:1:pos:R:3 pbc="T T T"
O        0.15636596       3.62736856       0.86050028
H        0.15175574       2.68974089       1.38180040
H        6.19490126       4.10852291       1.67871814
3
Lattice="6.35016 0.0 0.0 0.0 6.35016 0.0 0.0 0.0 6.35016" Properties=species:S:1:pos:R:3 pbc="T T T"
O        0.15820103       3.62187351       0.86380090
H        0.16105727       2.67325435       1.37116306
H        6.15908343       4.09826537       1.67549257
3
Lattice="6.35016 0.0 0.0 0.0 6.35016 0.0 0.0 0.0 6.35016" Properties=species:S:1:pos:R:3 pbc="T T T"
O        0.15995056       3.61597383       0.86758915
H        0.17090128       2.66293159       1.35553678
H        6.12410192       4.08831766       1.66946449
3
Lattice="6.35016 0.0 0.0 0.0 6.35016 0.0 0.0 0.0 6.35016" Properties=species:S:1:pos:R:3 pbc="T T T"
O        0.16160363       3.60969302       0.87185328
H        0.18121083       2.65877713       1.33530898
H        6.09020204       4.07829888       1.66043965
3
Lattice="6.35016 0.0 0.0 0.0 6.35016 0.0 0.0 0.0 6.35016" Properties=species:S:1:pos:R:3 pbc="T T T"
O        0.16315250       3.60307793       0.87656021
H        0.19190330       2.66035483       1.31107543
H        6.05759924       4.06789814       1.64834685
3
Lattice="6.35016 0.0 0.0 0.0 6.35016 0.0 0.0 0.0 6.35016" Properties=species:S:1:pos:R:3 pbc="T T T"
O        0.16459151       3.59620324       0.88165501
H        0.20290234       2.66670594       1.28365309
H        6.02646212       4.05687611       1.63325182
3
Lattice="6.35016 0.0 0.0 0.0 6.35016 0.0 0.0 0.0 6.35016" Properties=species:S:1:pos:R:3 pbc="T T T"
O        0.16591736       3.58917876       0.88705963
H        0.21415718       2.67623651       1.25408999
H        5.99688898       4.04506272       1.61535014
3
Lattice="6.35016 0.0 0.0 0.0 6.35016 0.0 0.0 0.0 6.35016" Properties=species:S:1:pos:R:3 pbc="T T T"
O        0.16712992       3.58215688       0.89267450
H        0.22566811       2.68661909       1.22364446
H        5.96888426       4.03235522       1.59497032
3
Lattice="6.35016 0.0 0.0 0.0 6.35016 0.0 0.0 0.0 6.35016" Properties=species:S:1:pos:R:3 pbc="T T T"
O        0.16823098       3.57532697       0.89838673
H        0.23750468       2.69486356       1.19368479
H        5.94234866       4.01870542       1.57255210
3
Lattice="6.35016 0.0 0.0 0.0 6.35016 0.0 0.0 0.0 6.35016" Properties=species:S:1:pos:R:3 pbc="T T T"
O        0.16922529       3.56889616       0.90408149
H        0.24980653       2.69766519       1.16549814
H        5.91706531       4.00411447       1.54864013
3
Lattice="6.35016 0.0 0.0 0.0 6.35016 0.0 0.0 0.0 6.35016" Properties=species:S:1:pos:R:3 pbc="T T T"
O        0.17012485       3.56303712       0.90966366
H        0.26272187       2.69223962       1.13998644
H        5.89269454       3.98861564       1.52384129
3
Lattice="6.35016 0.0 0.0 0.0 6.35016 0.0 0.0 0.0 6.35016" Properties=species:S:1:pos:R:3 pbc="T T T"
O        0.17095628       3.55782504       0.91507495
H        0.27627584       2.67732722       1.11744566
H        5.86878409       3.97225642       1.49879207
3
Lattice="6.35016 0.0 0.0 0.0 6.35016 0.0 0.0 0.0 6.35016" Properties=species:S:1:pos:R:3 pbc="T T T"
O        0.17176503       3.55320606       0.92029643
H        0.29024975       2.65376863       1.09758293
H        5.84480919       3.95507549       1.47409763
3
Lattice="6.35016 0.0 0.0 0.0 6.35016 0.0 0.0 0.0 6.35016" Properties=species:S:1:pos:R:3 pbc="T T T"
O        0.17261494       3.54901673       0.92533446
H        0.30415292       2.62418489       1.07978324
H        5.82025185       3.93706802       1.45026084
3
Lattice="6.35016 0.0 0.0 0.0 6.35016 0.0 0.0 0.0 6.35016" Properties=species:S:1:pos:R:3 pbc="T T T"
O        0.17357286       3.54504762       0.93020947
H        0.31732797       2.59200475       1.06341602
H        5.79470541       3.91814448       1.42760201
3
Lattice="6.35016 0.0 0.0 0.0 6.35016 0.0 0.0 0.0 6.35016" Properties=species:S:1:pos:R:3 pbc="T T T"
O        0.17469341       3.54110189       0.93494549
H        0.32909368       2.56055254       1.04800647
H        5.76797422       3.89810973       1.40620769
3
Lattice="6.35016 0.0 0.0 0.0 6.35016 0.0 0.0 0.0 6.35016" Properties=species:S:1:pos:R:3 pbc="T T T"
O        0.17600688       3.53702801       0.93956967
H        0.33885743       2.53254859       1.03326362
H        5.74016350       3.87667368       1.38592966
3
Lattice="6.35016 0.0 0.0 0.0 6.35016 0.0 0.0 0.0 6.35016" Properties=species:S:1:pos:R:3 pbc="T T T"
O        0.17751466       3.53272520       0.94411220
H        0.34617034       2.50995097       1.01904174
H        5.71169656       3.85348969       1.36643556
3
Lattice="6.35016 0.0 0.0 0.0 6.35016 0.0 0.0 0.0 6.35016" Properties=species:S:1:pos:R:3 pbc="T T T"
O        0.17919135       3.52813689       0.94860430
H        0.35074664       2.49401258       1.00528449
H        5.68326639       3.82821866       1.34728049
3
Lattice="6.35016 0.0 0.0 0.0 6.35016 0.0 0.0 0.0 6.35016" Properties=species:S:1:pos:R:3 pbc="T T T"
O        0.18099150       3.52323914       0.95307570
H        0.35245909       2.48537579       0.99198332
H        5.65573165       3.80058867       1.32799283
3
Lattice="6.35016 0.0 0.0 0.0 6.35016 0.0 0.0 0.0 6.35016" Properties=species:S:1:pos:R:3 pbc="T T T"
O        0.18285514       3.51803519       0.95755333
H        0.35133359       2.48414875       0.97914895
H        5.63002068       3.77044611       1.30814509
3
Lattice="6.35016 0.0 0.0 0.0 6.35016 0.0 0.0 0.0 6.35016" Properties=species:S:1:pos:R:3 pbc="T T T"
O        0.18471707       3.51254954       0.96205711
H        0.34754521       2.48993400       0.96679325
H        5.60701386       3.73779295       1.28740318
3
Lattice="6.35016 0.0 0.0 0.0 6.35016 0.0 0.0 0.0 6.35016" Properties=species:S:1:pos:R:3 pbc="T T T"
O        0.18650896       3.50683096       0.96660192
H        0.34142524       2.50179451       0.95490696
H        5.58746610       3.70278585       1.26554536
3
Lattice="6.35016 0.0 0.0 0.0 6.35016 0.0 0.0 0.0 6.35016" Properties=species:S:1:pos:R:3 pbc="T T T"
O        0.18816515       3.50095548       0.97119766
H        0.33346792       2.51819373       0.94343794
H        5.57194084       3.66573597       1.24246780
3
Lattice="6.35016 0.0 0.0 0.0 6.35016 0.0 0.0 0.0 6.35016" Properties=species:S:1:pos:R:3 pbc="T T T"
O        0.18962352       3.49503300       0.97585157
H        0.32433455       2.53692937       0.93226807
H        5.56076920       3.62709576       1.21817977
3
Lattice="6.35016 0.0 0.0 0.0 6.35016 0.0 0.0 0.0 6.35016" Properties=species:S:1:pos:R:3 pbc="T T T"
O        0.19082840       3.48920622       0.98056980
H        0.31483573       2.55514176       0.92117783
H        5.55401498       3.58743266       1.19279450
3
Lattice="6.35016 0.0 0.0 0.0 6.35016 0.0 0.0 0.0 6.35016" Properties=species:S:1:pos:R:3 pbc="T T T"
O        0.19173902       3.48364094       0.98536061
H        0.30588327       2.56953300       0.90982997
H        5.55143497       3.54739737       1.16651385
3
Lattice="6.35016 0.0 0.0 0.0 6.35016 0.0 0.0 0.0 6.35016" Properties=species:S:1:pos:R:3 pbc="T T T"
O        0.19233098       3.47849211       0.99023430
H        0.29838678       2.57695430       0.89779673
H        5.55249767       3.50767814       1.13960270
3
Lattice="6.35016 0.0 0.0 0.0 6.35016 0.0 0.0 0.0 6.35016" Properties=species:S:1:pos:R:3 pbc="T T T"
O        0.19260797       3.47385039       0.99519835
H        0.29312897       2.57526122       0.88465406
H        5.55637444       3.46894521       1.11235791
3
Lattice="6.35016 0.0 0.0 0.0 6.35016 0.0 0.0 0.0 6.35016" Properties=species:S:1:pos:R:3 pbc="T T T"
O        0.19259997       3.46970317       1.00025060
H        0.29065933       2.56406976       0.87013626
H        5.56202354       3.43180192       1.08507356
3
Lattice="6.35016 0.0 0.0 0.0 6.35016 0.0 0.0 0.0 6.35016" Properties=species:S:1:pos:R:3 pbc="T T T"
O        0.19236108       3.46592450       1.00537302
H        0.29126101       2.54492086       0.85427369
H        5.56831185       3.39673646       1.05800683
3
Lattice="6.35016 0.0 0.0 0.0 6.35016 0.0 0.0 0.0 6.35016" Properties=species:S:1:pos:R:3 pbc="T T T"
O        0.19195403       3.46231609       1.01053195
H        0.29499687       2.52064229       0.83740322
H        5.57416029       3.36409512       1.03135000
3
Lattice="6.35016 0.0 0.0 0.0 6.35016 0.0 0.0 0.0 6.35016" Properties=species:S:1:pos:R:3 pbc="T T T"
O        0.19143770       3.45866392       1.01568618
H        0.30177967       2.49445480       0.82006957
H        5.57871532       3.33410337       1.00521909
3
Lattice="6.35016 0.0 0.0 0.0 6.35016 0.0 0.0 0.0 6.35016" Properties=species:S:1:pos:R:3 pbc="T T T"
O        0.19085507       3.45477515       1.02079286
H        0.31142836       2.46930245       0.80290197
H        5.58147002       3.30688767       0.97967493
3
Lattice="6.35016 0.0 0.0 0.0 6.35016 0.0 0.0 0.0 6.35016" Properties=species:S:1:pos:R:3 pbc="T T T"
O        0.19022698       3.45049838       1.02581158
H        0.32370906       2.44753607       0.78651037
H        5.58232208       3.28252471       0.95475126
3
Lattice="6.35016 0.0 0.0 0.0 6.35016 0.0 0.0 0.0 6.35016" Properties=species:S:1:pos:R:3 pbc="T T T"
O        0.18955361       3.44572223       1.03070628
H        0.33835335       2.43087535       0.77143255
H        5.58152876       3.26108009       0.93048482
3
Lattice="6.35016 0.0 0.0 0.0 6.35016 0.0 0.0 0.0 6.35016" Properties=species:S:1:pos:R:3 pbc="T T T"
O        0.18881979       3.44036962       1.03544483
H        0.35508641       2.42046858       0.75811366
H        5.57962752       3.24262271       0.90694344
3
Lattice="6.35016 0.0 0.0 0.0 6.35016 0.0 0.0 0.0 6.35016" Properties=species:S:1:pos:R:3 pbc="T T T"
O        0.18799947       3.43439590       1.03999987
H        0.37363459       2.41697859       0.74689547
H        5.57729892       3.22722218       0.88423730
3
Lattice="6.35016 0.0 0.0 0.0 6.35016 0.0 0.0 0.0 6.35016" Properties=species:S:1:pos:R:3 pbc="T T T"
O        0.18706384       3.42778087       1.04434738
H        0.39373380       2.42066543       0.73801750
H        5.57525855       3.21493043       0.86250718
3
Lattice="6.35016 0.0 0.0 0.0 6.35016 0.0 0.0 0.0 6.35016" Properties=species:S:1:pos:R:3 pbc="T T T"
O        0.18598774       3.42052969       1.04847015
H        0.41515016       2.43141695       0.73161140
H        5.57415610       3.20576086       0.84190955
3
Lattice="6.35016 0.0 0.0 0.0 6.35016 0.0 0.0 0.0 6.35016" Properties=species:S:1:pos:R:3 pbc="T T T"
O        0.18474838       3.41267486       1.05235880
H        0.43770745       2.44873994       0.72767519
H        5.57451596       3.19967830       0.82259541
3
Lattice="6.35016 0.0 0.0 0.0 6.35016 0.0 0.0 0.0 6.35016" Properties=species:S:1:pos:R:3 pbc="T T T"
O        0.18332899       3.40427982       1.05601561
H        0.46132814       2.47173348       0.72604554
H        5.57669692       3.19658374       0.80468847
3
Lattice="6.35016 0.0 0.0 0.0 6.35016 0.0 0.0 0.0 6.35016" Properties=species:S:1:pos:R:3 pbc="T T T"
O        0.18171434       3.39543843       1.05945796
H        0.48607039       2.49905359       0.72636896
H        5.58088111       3.19629677       0.78826663
3
Lattice="6.35016 0.0 0.0 0.0 6.35016 0.0 0.0 0.0 6.35016" Properties=species:S:1:pos:R:3 pbc="T T T"
O        0.17988898       3.38628016       1.06272182
H        0.51219089       2.52888651       0.72806121
H        5.58706102       3.19855406       0.77334020
3
Lattice="6.35016 0.0 0.0 0.0 6.35016 0.0 0.0 0.0 6.35016" Properties=species:S:1:pos:R:3 pbc="T T T"
O        0.17783350       3.37696416       1.06586305
H        0.54018182       2.55903625       0.73030460
H        5.59505098       3.20301092       0.75983506
3
Lattice="6.35016 0.0 0.0 0.0 6.35016 0.0 0.0 0.0 6.35016" Properties=species:S:1:pos:R:3 pbc="T T T"
O        0.17552680       3.36766289       1.06895444
H        0.57075206       2.58717596       0.73211744
H        5.60448668       3.20924418       0.74757208
3
Lattice="6.35016 0.0 0.0 0.0 6.35016 0.0 0.0 0.0 6.35016" Properties=species:S:1:pos:R:3 pbc="T T T"
O        0.17295474       3.35853180       1.07207478
H        0.60465417       2.61130498       0.73252855
H        5.61483859       3.21676334       0.73625343
3
Lattice="6.35016 0.0 0.0 0.0 6.35016 0.0 0.0 0.0 6.35016" Properties=species:S:1:pos:R:3 pbc="T T T"
O        0.17012936       3.34967339       1.07529348
H        0.64234231       2.63033394       0.73085109
H        5.62545053       3.22504134       0.72546076
3
Lattice="6.35016 0.0 0.0 0.0 6.35016 0.0 0.0 0.0 6.35016" Properties=species:S:1:pos:R:3 pbc="T T T"
O        0.16711138       3.34111084       1.07865469
H        0.68359758       2.64442215       0.72690294
H        5.63557738       3.23354129       0.71466002
3
Lattice="6.35016 0.0 0.0 0.0 6.35016 0.0 0.0 0.0 6.35016" Properties=species:S:1:pos:R:3 pbc="T T T"
O        0.16401066       3.33279505       1.08217274
H        0.72737095       2.65484517       0.72104035
H        5.64450793       3.24176963       0.70325577
3
Lattice="6.35016 0.0 0.0 0.0 6.35016 0.0 0.0 0.0 6.35016" Properties=species:S:1:pos:R:3 pbc="T T T"
O        0.16096938       3.32463554       1.08584034
H        0.77195263       2.66345917       0.71397726
H        5.65168075       3.24931254       0.69065458
3
Lattice="6.35016 0.0 0.0 0.0 6.35016 0.0 0.0 0.0 6.35016" Properties=species:S:1:pos:R:3 pbc="T T T"
O        0.15812883       3.31653293       1.08963704
H        0.81534937       2.67215196       0.70654503
H        5.65682438       3.25586356       0.67635732
3
Lattice="6.35016 0.0 0.0 0.0 6.35016 0.0 0.0 0.0 6.35016" Properties=species:S:1:pos:R:3 pbc="T T T"
O        0.15560121       3.30840186       1.09353508
H        0.85563459       2.68247332       0.69949927
H        5.66007554       3.26123148       0.66005532
3
Lattice="6.35016 0.0 0.0 0.0 6.35016 0.0 0.0 0.0 6.35016" Properties=species:S:1:pos:R:3 pbc="T T T"
O        0.15345295       3.30018101       1.09750165
H        0.89119631       2.69550982       0.69342617
H        5.66198745       3.26532479       0.64168272
3
Lattice="6.35016 0.0 0.0 0.0 6.35016 0.0 0.0 0.0 6.35016" Properties=species:S:1:pos:R:3 pbc="T T T"
O        0.15170494       3.29183010       1.10150066
H        0.92081740       2.71189876       0.68872216
H        5.66344106       3.26812280       0.62141567
3
Lattice="6.35016 0.0 0.0 0.0 6.35016 0.0 0.0 0.0 6.35016" Properties=species:S:1:pos:R:3 pbc="T T T"
O        0.15034004       3.28333130       1.10549389
H        0.94369124       2.73191370       0.68561554
H        5.66550201       3.26965820       0.59964345
3
Lattice="6.35016 0.0 0.0 0.0 6.35016 0.0 0.0 0.0 6.35016" Properties=species:S:1:pos:R:3 pbc="T T T"
O        0.14931480       3.27468131       1.10944217
H        0.95942212       2.75554061       0.68418434
H        5.66925730       3.26999692       0.57689984
3
Lattice="6.35016 0.0 0.0 0.0 6.35016 0.0 0.0 0.0 6.35016" Properties=species:S:1:pos:R:3 pbc="T T T"
O        0.14856923       3.26589021       1.11331246
H        0.96801909       2.78252606       0.68437008
H        5.67567052       3.26922722       0.55378659
3
Lattice="6.35016 0.0 0.0 0.0 6.35016 0.0 0.0 0.0 6.35016" Properties=species:S:1:pos:R:3 pbc="T T T"
O        0.14802858       3.25698106       1.11707970
H        0.96991855       2.81240706       0.68596746
H        5.68549313       3.26745298       0.53090233
3
Lattice="6.35016 0.0 0.0 0.0 6.35016 0.0 0.0 0.0 6.35016" Properties=species:S:1:pos:R:3 pbc="T T T"
O        0.14760718       3.24798657       1.12073288
H        0.96601847       2.84454109       0.68860773
H        5.69920884       3.26479455       0.50879520
3
Lattice="6.35016 0.0 0.0 0.0 6.35016 0.0 0.0 0.0 6.35016" Properties=species:S:1:pos:R:3 pbc="T T T"
O        0.14720382       3.23894800       1.12427792
H        0.95774466       2.87813141       0.69172953
H        5.71700504       3.26138629       0.48792693
3
Lattice="6.35016 0.0 0.0 0.0 6.35016 0.0 0.0 0.0 6.35016" Properties=species:S:1:pos:R:3 pbc="T T T"
O        0.14670292       3.22991262       1.12774257
H        0.94708083       2.91226675       0.69455593
H        5.73875739       3.25737934       0.46863527
3
Lattice="6.35016 0.0 0.0 0.0 6.35016 0.0 0.0 0.0 6.35016" Properties=species:S:1:pos:R:3 pbc="T T T"
O        0.14597678       3.22092809       1.13117572
H        0.93648343       2.94603208       0.69612378
H        5.76403795       3.25293176       0.45110209
3
Lattice="6.35016 0.0 0.0 0.0 6.35016 0.0 0.0 0.0 6.35016" Properties=species:S:1:pos:R:3 pbc="T T T"
O        0.14490430       3.21203177       1.13464195
H        0.92861304       2.97866460       0.69541339
H        5.79212210       3.24820406       0.43531388
3
Lattice="6.35016 0.0 0.0 0.0 6.35016 0.0 0.0 0.0 6.35016" Properties=species:S:1:pos:R:3 pbc="T T T"
O        0.14340020       3.20324093       1.13820535
H        0.92580208       3.00972939       0.69162234
H        5.82203396       3.24335241       0.42104780
3
Lattice="6.35016 0.0 0.0 0.0 6.35016 0.0 0.0 0.0 6.35016" Properties=species:S:1:pos:R:3 pbc="T T T"
O        0.14145140       3.19454711       1.14190800
H        0.92943418       3.03922093       0.68449778
H        5.85261753       3.23851803       0.40786805
3
Lattice="6.35016 0.0 0.0 0.0 6.35016 0.0 0.0 0.0 6.35016" Properties=species:S:1:pos:R:3 pbc="T T T"
O        0.13913188       3.18592150       1.14575423
H        0.93952249       3.06749788       0.67456721
H        5.88266103       3.23381885       0.39519389
3
Lattice="6.35016 0.0 0.0 0.0 6.35016 0.0 0.0 0.0 6.35016" Properties=species:S:1:pos:R:3 pbc="T T T"
O        0.13659131       3.17732764       1.14970593
H        0.95481457       3.09505128       0.66307050
H        5.91103551       3.22933570       0.38239159
3
Lattice="6.35016 0.0 0.0 0.0 6.35016 0.0 0.0 0.0 6.35016" Properties=species:S:1:pos:R:3 pbc="T T T"
O        0.13401041       3.16873778       1.15369510
H        0.97331322       3.12228420       0.65163888
H        5.93684453       3.22510777       0.36893039
3
Lattice="6.35016 0.0 0.0 0.0 6.35016 0.0 0.0 0.0 6.35016" Properties=species:S:1:pos:R:3 pbc="T T T"
O        0.13155988       3.16014080       1.15763493
H        0.99284479       3.14940192       0.64193158
H        5.95952661       3.22112565       0.35453407
3
Lattice="6.35016 0.0 0.0 0.0 6.35016 0.0 0.0 0.0 6.35016" Properties=species:S:1:pos:R:3 pbc="T T T"
O        0.12937556       3.15153945       1.16143112
H        1.01145729       3.17640185       0.63538856
H        5.97887611       3.21732876       0.33927813
3
Lattice="6.35016 0.0 0.0 0.0 6.35016 0.0 0.0 0.0 6.35016" Properties=species:S:1:pos:R:3 pbc="T T T"
O        0.12754652       3.14295086       1.16498645
H        1.02759991       3.20313170       0.63311686
H        5.99499949       3.21361055       0.32360720
3
Lattice="6.35016 0.0 0.0 0.0 6.35016 0.0 0.0 0.0 6.35016" Properties=species:S:1:pos:R:3 pbc="T T T"
O        0.12612491       3.13439897       1.16820769
H        1.04013760       3.22935875       0.63588737
H        6.00820293       3.20982935       0.30822896
3
Lattice="6.35016 0.0 0.0 0.0 6.35016 0.0 0.0 0.0 6.35016" Properties=species:S:1:pos:R:3 pbc="T T T"
O        0.12513257       3.12590950       1.17101319
H        1.04831527       3.25481267       0.64417287
H        6.01889571       3.20581985       0.29399634
3
Lattice="6.35016 0.0 0.0 0.0 6.35016 0.0 0.0 0.0 6.35016" Properties=species:S:1:pos:R:3 pbc="T T T"
O        0.12456912       3.11750970       1.17333640
H        1.05171439       3.27922815       0.65818627
H        6.02750177       3.20141272       0.28176308
3
Lattice="6.35016 0.0 0.0 0.0 6.35016 0.0 0.0 0.0 6.35016" Properties=species:S:1:pos:R:3 pbc="T T T"
O        0.12441830       3.10922395       1.17513013
H        1.05021302       3.30236972       0.67792003
H        6.03440172       3.19644797       0.27228108
3
Lattice="6.35016 0.0 0.0 0.0 6.35016 0.0 0.0 0.0 6.35016" Properties=species:S:1:pos:R:3 pbc="T T T"
O        0.12465021       3.10107136       1.17637254
H        1.04398891       3.32406517       0.70316312
H        6.03989893       3.19078318       0.26611381
3
Lattice="6.35016 0.0 0.0 0.0 6.35016 0.0 0.0 0.0 6.35016" Properties=species:S:1:pos:R:3 pbc="T T T"
O        0.12522033       3.09306406       1.17706744
H        1.03353293       3.34424001       0.73351168
H        6.04421882       3.18430113       0.26360810
3
Lattice="6.35016 0.0 0.0 0.0 6.35016 0.0 0.0 0.0 6.35016" Properties=species:S:1:pos:R:3 pbc="T T T"
O        0.12606623       3.08520326       1.17724613
H        1.01968437       3.36295348       0.76836898
H        6.04750629       3.17691736       0.26486543
3
Lattice="6.35016 0.0 0.0 0.0 6.35016 0.0 0.0 0.0 6.35016" Properties=species:S:1:pos:R:3 pbc="T T T"
O        0.12710696       3.07747709       1.17696583
H        1.00366146       3.38045002       0.80695890
H        6.04983553       3.16858429       0.26973429
3
Lattice="6.35016 0.0 0.0 0.0 6.35016 0.0 0.0 0.0 6.35016" Properties=species:S:1:pos:R:3 pbc="T T T"
O        0.12824212       3.06985709       1.17630993
H        0.98706195       3.39719596       0.84836296
H        6.05121923       3.15929998       0.27780883
3
Lattice="6.35016 0.0 0.0 0.0 6.35016 0.0 0.0 0.0 6.35016" Properties=species:S:1:pos:R:3 pbc="T T T"
O        0.12935670       3.06229627       1.17538121
H        0.97176956       3.41389910       0.89159802
H        6.05161491       3.14911578       0.28842376
3
Lattice="6.35016 0.0 0.0 0.0 6.35016 0.0 0.0 0.0 6.35016" Properties=species:S:1:pos:R:3 pbc="T T T"
O        0.13033881       3.05473361       1.17429311
H        0.95966996       3.43143158       0.93575221
H        6.05093386       3.13814556       0.30067322
3
Lattice="6.35016 0.0 0.0 0.0 6.35016 0.0 0.0 0.0 6.35016" Properties=species:S:1:pos:R:3 pbc="T T T"
O        0.13110591       3.04710472       1.17315669
H        0.95218166       3.45063408       0.98014948
H        6.04905916       3.12656503       0.31346631
3
Lattice="6.35016 0.0 0.0 0.0 6.35016 0.0 0.0 0.0 6.35016" Properties=species:S:1:pos:R:3 pbc="T T T"
O        0.13163748       3.03936317       1.17206967
H        0.94978245       3.47203139       1.02441810
H        6.04586484       3.11461511       0.32559144
3
Lattice="6.35016 0.0 0.0 0.0 6.35016 0.0 0.0 0.0 6.35016" Properties=species:S:1:pos:R:3 pbc="T T T"
O        0.13198198       3.03149063       1.17111626
H        0.95177767       3.49559709       1.06841099
H        6.04124878       3.10259070       0.33586276
3
Lattice="6.35016 0.0 0.0 0.0 6.35016 0.0 0.0 0.0 6.35016" Properties=species:S:1:pos:R:3 pbc="T T T"
O        0.13224862       3.02350587       1.17036376
H        0.95645107       3.52070689       1.11203856
H        6.03519613       3.09082023       0.34328565
3
Lattice="6.35016 0.0 0.0 0.0 6.35016 0.0 0.0 0.0 6.35016" Properties=species:S:1:pos:R:3 pbc="T T T"
O        0.13256842       3.01545323       1.16986267
H        0.96157145       3.54631366       1.15509614
H        6.02784702       3.07963449       0.34725571
3
Lattice="6.35016 0.0 0.0 0.0 6.35016 0.0 0.0 0.0 6.35016" Properties=species:S:1:pos:R:3 pbc="T T T"
O        0.13305947       3.00738847       1.16964378
H        0.96491672       3.57121860       1.19721338
H        6.01953752       3.06934431       0.34765526
3
Lattice="6.35016 0.0 0.0 0.0 6.35016 0.0 0.0 0.0 6.35016" Properties=species:S:1:pos:R:3 pbc="T T T"
O        0.13380498       2.99936548       1.16971376
H        0.96461229       3.59428823       1.23788679
H        6.01081386       3.06022072       0.34488602
3
Lattice="6.35016 0.0 0.0 0.0 6.35016 0.0 0.0 0.0 6.35016" Properties=species:S:1:pos:R:3 pbc="T T T"
O        0.13484660       2.99142874       1.17005673
H        0.95927873       3.61459108       1.27655755
H        6.00237749       3.05248673       0.33976106
3
Lattice="6.35016 0.0 0.0 0.0 6.35016 0.0 0.0 0.0 6.35016" Properties=species:S:1:pos:R:3 pbc="T T T"
O        0.13619156       2.98360966       1.17064114
H        0.94803964       3.63144911       1.31268044
H        5.99499231       3.04631908       0.33333044
3
Lattice="6.35016 0.0 0.0 0.0 6.35016 0.0 0.0 0.0 6.35016" Properties=species:S:1:pos:R:3 pbc="T T T"
O        0.13782102       2.97592596       1.17142697
H        0.93046158       3.64443569       1.34577499
H        5.98938969       3.04184767       0.32671707
3
Lattice="6.35016 0.0 0.0 0.0 6.35016 0.0 0.0 0.0 6.35016" Properties=species:S:1:pos:R:3 pbc="T T T"
O        0.13969844       2.96838318       1.17237187
H        0.90650896       3.65339215       1.37547672
H        5.98618477       3.03916137       0.32095474
3
Lattice="6.35016 0.0 0.0 0.0 6.35016 0.0 0.0 0.0 6.35016" Properties=species:S:1:pos:R:3 pbc="T T T"
O        0.14177716       2.96097242       1.17343603
H        0.87648534       3.65841595       1.40156318
H        5.98583379       3.03830327       0.31691026
3
Lattice="6.35016 0.0 0.0 0.0 6.35016 0.0 0.0 0.0 6.35016" Properties=species:S:1:pos:R:3 pbc="T T T"
O        0.14400080       2.95366827       1.17458287
H        0.84103907       3.65990144       1.42397861
H        5.98859446       3.03927935       0.31520842
3
Lattice="6.35016 0.0 0.0 0.0 6.35016 0.0 0.0 0.0 6.35016" Properties=species:S:1:pos:R:3 pbc="T T T"
O        0.14630565       2.94642769       1.17577950
H        0.80112596       3.65857496       1.44287986
H        5.99452494       3.04205450       0.31622158
3
Lattice="6.35016 0.0 0.0 0.0 6.35016 0.0 0.0 0.0 6.35016" Properties=species:S:1:pos:R:3 pbc="T T T"
O        0.14862149       2.93918476       1.17699536
H        0.75801530       3.65555800       1.45867811
H        6.00347155       3.04656241       0.32002889
3
Lattice="6.35016 0.0 0.0 0.0 6.35016 0.0 0.0 0.0 6.35016" Properties=species:S:1:pos:R:3 pbc="T T T"
O        0.15087694       2.93184969       1.17820132
H        0.71322216       3.65237695       1.47206748
H        6.01507628       3.05270892       0.32640743
3
Lattice="6.35016 0.0 0.0 0.0 6.35016 0.0 0.0 0.0 6.35016" Properties=species:S:1:pos:R:3 pbc="T T T"
O        0.15300526       2.92431313       1.17937153
H        0.66835472       3.65088930       1.48399867
H        6.02878336       3.06038500       0.33481301
3
Lattice="6.35016 0.0 0.0 0.0 6.35016 0.0 0.0 0.0 6.35016" Properties=species:S:1:pos:R:3 pbc="T T T"
O        0.15496162       2.91646135       1.18049074
H        0.62486190       3.65301654       1.49556847
H        6.04386505       3.06948300       0.34439032
3
Lattice="6.35016 0.0 0.0 0.0 6.35016 0.0 0.0 0.0 6.35016" Properties=species:S:1:pos:R:3 pbc="T T T"
O        0.15673916       2.90820494       1.18156424
H        0.58369299       3.66027648       1.50780250
H        6.05947711       3.07991250       0.35402599
3
Lattice="6.35016 0.0 0.0 0.0 6.35016 0.0 0.0 0.0 6.35016" Properties=species:S:1:pos:R:3 pbc="T T T"
O        0.15837788       2.89951131       1.18262802
H        0.54509208       3.67325526       1.52138568
H        6.07474943       3.09160861       0.36246904
3
Lattice="6.35016 0.0 0.0 0.0 6.35016 0.0 0.0 0.0 6.35016" Properties=species:S:1:pos:R:3 pbc="T T T"
O        0.15995278       2.89042373       1.18374552
H        0.50862489       3.69131715       1.53648840
H        6.08891543       3.10451563       0.36853795
3
Lattice="6.35016 0.0 0.0 0.0 6.35016 0.0 0.0 0.0 6.35016" Properties=species:S:1:pos:R:3 pbc="T T T"
O        0.16154794       2.88105464       1.18499066
H        0.47347587       3.71275808       1.55279110
H        6.10145109       3.11854148       0.37137742
3
Lattice="6.35016 0.0 0.0 0.0 6.35016 0.0 0.0 0.0 6.35016" Properties=species:S:1:pos:R:3 pbc="T T T"
O        0.16322813       2.87155981       1.18642211
H        0.43879961       3.73528724       1.56966932
H        6.11217226       3.13349141       0.37067414
3
Lattice="6.35016 0.0 0.0 0.0 6.35016 0.0 0.0 0.0 6.35016" Properties=species:S:1:pos:R:3 pbc="T T T"
O        0.16502300       2.86210976       1.18806521
H        0.40395457       3.75654713       1.58641215
H        6.12124511       3.14901107       0.36673292
3
Lattice="6.35016 0.0 0.0 0.0 6.35016 0.0 0.0 0.0 6.35016" Properties=species:S:1:pos:R:3 pbc="T T T"
O        0.16692742       2.85286742       1.18990816
H        0.36858443       3.77446373       1.60238001
H        6.12910687       3.16457734       0.36037723
3
Lattice="6.35016 0.0 0.0 0.0 6.35016 0.0 0.0 0.0 6.35016" Properties=species:S:1:pos:R:3 pbc="T T T"
O        0.16891070       2.84397516       1.19191081
H        0.33259382       3.78740345       1.61707999
H        6.13633976       3.17953959       0.35273418
3
Lattice="6.35016 0.0 0.0 0.0 6.35016 0.0 0.0 0.0 6.35016" Properties=species:S:1:pos:R:3 pbc="T T T"
O        0.17092986       2.83554990       1.19401919
H        0.29607221       3.79419133       1.63018323
H        6.14354688       3.19319377       0.34499626
3
Lattice="6.35016 0.0 0.0 0.0 6.35016 0.0 0.0 0.0 6.35016" Properties=species:S:1:pos:R:3 pbc="T T T"
O        0.17293765       2.82768059       1.19617621
H        0.25923938       3.79408668       1.64152119
H        6.15126353       3.20486111       0.33823797
3
Lattice="6.35016 0.0 0.0 0.0 6.35016 0.0 0.0 0.0 6.35016" Properties=species:S:1:pos:R:3 pbc="T T T"
O        0.17488988       2.82042572       1.19833126
H        0.22238673       3.78672443       1.65107265
H        6.15991219       3.21394660       0.33330072
3
Lattice="6.35016 0.0 0.0 0.0 6.35016 0.0 0.0 0.0 6.35016" Properties=species:S:1:pos:R:3 pbc="T T T"
O        0.17674807       2.81381610       1.20044079
H        0.18582949       3.77209740       1.65896063
H        6.16979145       3.21997487       0.33075799
3
Lattice="6.35016 0.0 0.0 0.0 6.35016 0.0 0.0 0.0 6.35016" Properties=species:S:1:pos:R:3 pbc="T T T"
O        0.17848160       2.80785196       1.20246922
H        0.14987451       3.75054153       1.66545850
H        6.18107740       3.22260574       0.33089458
3
Lattice="6.35016 0.0 0.0 0.0 6.35016 0.0 0.0 0.0 6.35016" Properties=species:S:1:pos:R:3 pbc="T T T"
O        0.18007104       2.80250113       1.20439002
H        0.11477997       3.72275164       1.67100942
H        6.19382973       3.22165353       0.33369805
3
Lattice="6.35016 0.0 0.0 0.0 6.35016 0.0 0.0 0.0 6.35016" Properties=species:S:1:pos:R:3 pbc="T T T"
O        0.18150751       2.79769825       1.20618165
H        0.08071568       3.68979724       1.67624977
H        6.20800951       3.21709158       0.33887883
3
Lattice="6.35016 0.0 0.0 0.0 6.35016 0.0 0.0 0.0 6.35016" Properties=species:S:1:pos:R:3 pbc="T T T"
O        0.18279742       2.79334254       1.20782602
H        0.04771212       3.65314386       1.68203248
H        6.22348548       3.20906739       0.34586794
3
Lattice="6.35016 0.0 0.0 0.0 6.35016 0.0 0.0 0.0 6.35016" Properties=species:S:1:pos:R:3 pbc="T T T"
O        0.18396452       2.78930022       1.20930936
H        0.01560425       3.61460296       1.68941301
H        6.24004181       3.19791308       0.35383085
3
Lattice="6.35016 0.0 0.0 0.0 6.35016 0.0 0.0 0.0 6.35016" Properties=species:S:1:pos:R:3 pbc="T T T"
O        0.18505116       2.78541386       1.21062378
H        6.33416388       3.57617008       1.69958279
H        6.25738988       3.18414708       0.36169679
3
Lattice="6.35016 0.0 0.0 0.0 6.35016 0.0 0.0 0.0 6.35016" Properties=species:S:1:pos:R:3 pbc="T T T"
O        0.18611417       2.78152401       1.21177512
H        6.30250205       3.53970625       1.71367482
H        6.27518982       3.16845608       0.36823873
3
Lattice="6.35016 0.0 0.0 0.0 6.35016 0.0 0.0 0.0 6.35016" Properties=species:S:1:pos:R:3 pbc="T T T"
O        0.18721529       2.77749883       1.21279369
H        6.27015198       3.50651917       1.73247180
H        6.29307981       3.15165032       0.37218764
3
Lattice="6.35016 0.0 0.0 0.0 6.35016 0.0 0.0 0.0 6.35016" Properties=species:S:1:pos:R:3 pbc="T T T"
O        0.18840385       2.77326156       1.21374285
H        6.23666245       3.47699258       1.75607140
H        6.31072170       3.13456693       0.37243828
3
Lattice="6.35016 0.0 0.0 0.0 6.35016 0.0 0.0 0.0 6.35016" Properties=species:S:1:pos:R:3 pbc="T T T"
O        0.18970176       2.76880362       1.21471417
H        6.20195279       3.45053324       1.78371556
H        6.32784605       3.11795098       0.36828337
3
Lattice="6.35016 0.0 0.0 0.0 6.35016 0.0 0.0 0.0 6.35016" Properties=species:S:1:pos:R:3 pbc="T T T"
O        0.19109740       2.76417137       1.21580925
H        6.16637443       3.42586560       1.81388561
H        6.34428343       3.10234114       0.35961782
3
Lattice="6.35016 0.0 0.0 0.0 6.35016 0.0 0.0 0.0 6.35016" Properties=species:S:1:pos:R:3 pbc="T T T"
O        0.19255120       2.75944222       1.21711358
H        6.13061865       3.40148308       1.84462616
H        0.00980871       3.08801029       0.34702970
3
Lattice="6.35016 0.0 0.0 0.0 6.35016 0.0 0.0 0.0 6.35016" Properties=species:S:1:pos:R:3 pbc="T T T"
O        0.19400983       2.75469839       1.21867902
H        6.09553649       3.37604186       1.87392066
H        0.02474727       3.07498719       0.33170721
3
Lattice="6.35016 0.0 0.0 0.0 6.35016 0.0 0.0 0.0 6.35016" Properties=species:S:1:pos:R:3 pbc="T T T"
O        0.19541855       2.75001077       1.22052076
H        6.06196834       3.34855646       1.89995473
H        0.03896687       3.06312687       0.31522251
3
Lattice="6.35016 0.0 0.0 0.0 6.35016 0.0 0.0 0.0 6.35016" Properties=species:S:1:pos:R:3 pbc="T T T"
O        0.19673107       2.74543021       1.22262469
H        6.03064433       3.31843740       1.92126072
H        0.05247563       3.05220097       0.29926355
3
Lattice="6.35016 0.0 0.0 0.0 6.35016 0.0 0.0 0.0 6.35016" Properties=species:S:1:pos:R:3 pbc="T T T"
O        0.19791448       2.74098668       1.22495971
H        6.00213135       3.28543905       1.93676197
H        0.06523805       3.04197061       0.28540394
3
Lattice="6.35016 0.0 0.0 0.0 6.35016 0.0 0.0 0.0 6.35016" Properties=species:S:1:pos:R:3 pbc="T T T"
O        0.19895039       2.73669042       1.22748790
H        5.97680844       3.24959456       1.94576262
H        0.07716975       3.03223118       0.27494935
3
Lattice="6.35016 0.0 0.0 0.0 6.35016 0.0 0.0 0.0 6.35016" Properties=species:S:1:pos:R:3 pbc="T T T"
O        0.19983534       2.73253557       1.23017027
H        5.95485581       3.21115164       1.94792803
H        0.08814613       3.02283015       0.26886057
3
Lattice="6.35016 0.0 0.0 0.0 6.35016 0.0 0.0 0.0 6.35016" Properties=species:S:1:pos:R:3 pbc="T T T"
O        0.20058161       2.72850252       1.23296993
H        5.93623568       3.17052497       1.94327761
H        0.09801834       3.01367455       0.26771805
3
Lattice="6.35016 0.0 0.0 0.0 6.35016 0.0 0.0 0.0 6.35016" Properties=species:S:1:pos:R:3 pbc="T T T"
O        0.20121746       2.72455837       1.23585093
H        5.92065391       3.12827183       1.93219106
H        0.10662744       3.00472845       0.27171192
3
Lattice="6.35016 0.0 0.0 0.0 6.35016 0.0 0.0 0.0 6.35016" Properties=species:S:1:pos:R:3 pbc="T T T"
O        0.20179005       2.72065950       1.23877931
H        5.90751092       3.08506140       1.91542257
H        0.11381614       2.99601628       0.28063218
3
Lattice="6.35016 0.0 0.0 0.0 6.35016 0.0 0.0 0.0 6.35016" Properties=species:S:1:pos:R:3 pbc="T T T"
O        0.20236868       2.71675295       1.24172254
H        5.89583876       3.04165126       1.89412826
H        0.11944378       2.98763293       0.29384311
3
Lattice="6.35016 0.0 0.0 0.0 6.35016 0.0 0.0 0.0 6.35016" Properties=species:S:1:pos:R:3 pbc="T T T"
O        0.20304630       2.71277813       1.24465193
H        5.88426762       2.99883512       1.86983643
H        0.12339307       2.97974819       0.31027066
3
Lattice="6.35016 0.0 0.0 0.0 6.35016 0.0 0.0 0.0 6.35016" Properties=species:S:1:pos:R:3 pbc="T T T"
O        0.20393596       2.70867313       1.24755059
H        5.87107326       2.95733936       1.84432015
H        0.12557340       2.97261848       0.32840957
3
Lattice="6.35016 0.0 0.0 0.0 6.35016 0.0 0.0 0.0 6.35016" Properties=species:S:1:pos:R:3 pbc="T T T"
O        0.20515716       2.70438353       1.25042658
H        5.85440625       2.91770268       1.81932973
H        0.12592069       2.96658780       0.34638529
3
Lattice="6.35016 0.0 0.0 0.0 6.35016 0.0 0.0 0.0 6.35016" Properties=species:S:1:pos:R:3 pbc="T T T"
O        0.20680763       2.69987143       1.25332479
H        5.83274865       2.88012129       1.79617521
H        0.12440440       2.96204591       0.36217020
3
Lattice="6.35016 0.0 0.0 0.0 6.35016 0.0 0.0 0.0 6.35016" Properties=species:S:1:pos:R:3 pbc="T T T"
O        0.20892846       2.69512557       1.25633039
H        5.80541965       2.84441720       1.77538859
H        0.12102605       2.95936430       0.37388739
3
Lattice="6.35016 0.0 0.0 0.0 6.35016 0.0 0.0 0.0 6.35016" Properties=species:S:1:pos:R:3 pbc="T T T"
O        0.21148630       2.69015930       1.25954458
H        5.77290112       2.81012900       1.75664000
H        0.11584641       2.95877856       0.38024256
3
Lattice="6.35016 0.0 0.0 0.0 6.35016 0.0 0.0 0.0 6.35016" Properties=species:S:1:pos:R:3 pbc="T T T"
O        0.21437213       2.68500831       1.26305076
H        5.73677169       2.77669916       1.73896668
H        0.10901047       2.96028317       0.38088196
3
Lattice="6.35016 0.0 0.0 0.0 6.35016 0.0 0.0 0.0 6.35016" Properties=species:S:1:pos:R:3 pbc="T T T"
O        0.21743094       2.67972040       1.26687991
H        5.69926187       2.74365788       1.72119360
H        0.10077507       2.96358671       0.37648352
3
Lattice="6.35016 0.0 0.0 0.0 6.35016 0.0 0.0 0.0 6.35016" Properties=species:S:1:pos:R:3 pbc="T T T"
O        0.22049153       2.67434804       1.27100256
H        5.66274286       2.71070715       1.70227831
H        0.09151279       2.96815553       0.36854665
3
Lattice="6.35016 0.0 0.0 0.0 6.35016 0.0 0.0 0.0 6.35016" Properties=species:S:1:pos:R:3 pbc="T T T"
O        0.22339031       2.66894005       1.27534588
H        5.62935855       2.67772505       1.68150179
H        0.08168287       2.97333034       0.35896921
3
Lattice="6.35016 0.0 0.0 0.0 6.35016 0.0 0.0 0.0 6.35016" Properties=species:S:1:pos:R:3 pbc="T T T"
O        0.22598848       2.66353816       1.27981201
H        5.60084957       2.64472505       1.65849370
H        0.07179427       2.97843802       0.34966858
3
Lattice="6.35016 0.0 0.0 0.0 6.35016 0.0 0.0 0.0 6.35016" Properties=species:S:1:pos:R:3 pbc="T T T"
O        0.22817230       2.65817367       1.28430183
H        5.57850297       2.61179992       1.63318495
H        0.06235552       2.98288942       0.34229090
3
Lattice="6.35016 0.0 0.0 0.0 6.35016 0.0 0.0 0.0 6.35016" Properties=species:S:1:pos:R:3 pbc="T T T"
O        0.22985909       2.65286735       1.28872554
H        5.56317985       2.57908027       1.60575086
H        0.05385145       2.98622421       0.33810131
3
Lattice="6.35016 0.0 0.0 0.0 6.35016 0.0 0.0 0.0 6.35016" Properties=species:S:1:pos:R:3 pbc="T T T"
O        0.23099177       2.64763025       1.29300751
H        5.55534337       2.54669877       1.57654070
H        0.04672060       2.98812856       0.33795196
3
Lattice="6.35016 0.0 0.0 0.0 6.35016 0.0 0.0 0.0 6.35016" Properties=species:S:1:pos:R:3 pbc="T T T"
O        0.23154080       2.64246592       1.29709041
H        5.55507945       2.51476388       1.54605244
H        0.04134792       2.98844492       0.34228055
3
Lattice="6.35016 0.0 0.0 0.0 6.35016 0.0 0.0 0.0 6.35016" Properties=species:S:1:pos:R:3 pbc="T T T"
O        0.23150480       2.63737080       1.30093340
H        5.56209060       2.48332475       1.51488369
H        0.03805892       2.98717095       0.35113197
3
Lattice="6.35016 0.0 0.0 0.0 6.35016 0.0 0.0 0.0 6.35016" Properties=species:S:1:pos:R:3 pbc="T T T"
O        0.23091030       2.63233678       1.30451496
H        5.57568579       2.45234632       1.48370593
H        0.03711700       2.98446344       0.36418142
3
Lattice="6.35016 0.0 0.0 0.0 6.35016 0.0 0.0 0.0 6.35016" Properties=species:S:1:pos:R:3 pbc="T T T"
O        0.22981502       2.62735393       1.30783361
H        5.59472642       2.42166724       1.45324669
H        0.03871432       2.98065264       0.38072384
3
Lattice="6.35016 0.0 0.0 0.0 6.35016 0.0 0.0 0.0 6.35016" Properties=species:S:1:pos:R:3 pbc="T T T"
O        0.22831302       2.62241033       1.31091008
H        5.61760942       2.39095170       1.42424494
H        0.04297109       2.97624773       0.39968199
3
Lattice="6.35016 0.0 0.0 0.0 6.35016 0.0 0.0 0.0 6.35016" Properties=species:S:1:pos:R:3 pbc="T T T"
O        0.22652958       2.61749722       1.31379127
H        5.64228315       2.35965767       1.39738547
H        0.04991912       2.97194308       0.41961794
3
Lattice="6.35016 0.0 0.0 0.0 6.35016 0.0 0.0 0.0 6.35016" Properties=species:S:1:pos:R:3 pbc="T T T"
O        0.22461424       2.61260766       1.31654768
H        5.66641903       2.32704014       1.37322686
H        0.05950741       2.96858143       0.43883962
3
Lattice="6.35016 0.0 0.0 0.0 6.35016 0.0 0.0 0.0 6.35016" Properties=species:S:1:pos:R:3 pbc="T T T"
O        0.22271961       2.60773937       1.31926949
H        5.68770426       2.29220792       1.35211887
H        0.07160352       2.96709143       0.45555216
3
Lattice="6.35016 0.0 0.0 0.0 6.35016 0.0 0.0 0.0 6.35016" Properties=species:S:1:pos:R:3 pbc="T T T"
O        0.22096804       2.60289064       1.32205207
H        5.70436892       2.25432172       1.33413712
H        0.08601603       2.96833943       0.46816053
3
Lattice="6.35016 0.0 0.0 0.0 6.35016 0.0 0.0 0.0 6.35016" Properties=species:S:1:pos:R:3 pbc="T T T"
O        0.21942108       2.59805499       1.32497231
H        5.71568097       2.21288121       1.31908635
H        0.10252549       2.97293098       0.47564178
3
Lattice="6.35016 0.0 0.0 0.0 6.35016 0.0 0.0 0.0 6.35016" Properties=species:S:1:pos:R:3 pbc="T T T"
O        0.21805878       2.59321706       1.32806370
H        5.72215820       2.16796367       1.30657381
H        0.12089612       2.98103486       0.47782808
3
Lattice="6.35016 0.0 0.0 0.0 6.35016 0.0 0.0 0.0 6.35016" Properties=species:S:1:pos:R:3 pbc="T T T"
O        0.21680119       2.58835328       1.33131015
H        5.72534699       2.12029372       1.29611681
H        0.14088020       2.99230500       0.47547490
3
Lattice="6.35016 0.0 0.0 0.0 6.35016 0.0 0.0 0.0 6.35016" Properties=species:S:1:pos:R:3 pbc="T T T"
O        0.21553535       2.58343699       1.33464831
H        5.72732939       2.07110761       1.28722855
H        0.16218912       3.00592736       0.47007364
3
Lattice="6.35016 0.0 0.0 0.0 6.35016 0.0 0.0 0.0 6.35016" Properties=species:S:1:pos:R:3 pbc="T T T"
O        0.21415311       2.57844424       1.33799097
H        5.73019464       2.02189666       1.27946986
H        0.18447443       3.02080039       0.46346662
3
Lattice="6.35016 0.0 0.0 0.0 6.35016 0.0 0.0 0.0 6.35016" Properties=species:S:1:pos:R:3 pbc="T T T"
O        0.21256945       2.57335643       1.34124708
H        5.73570671       1.97415774       1.27246214
H        0.20732320       3.03572352       0.45748858
3
Lattice="6.35016 0.0 0.0 0.0 6.35016 0.0 0.0 0.0 6.35016" Properties=species:S:1:pos:R:3 pbc="T T T"
O        0.21073127       2.56816111       1.34433814
H        5.74516800       1.92923322       1.26589131
H        0.23028608       3.04955728       0.45371588
3
Lattice="6.35016 0.0 0.0 0.0 6.35016 0.0 0.0 0.0 6.35016" Properties=species:S:1:pos:R:3 pbc="T T T"
O        0.20861463       2.56285149       1.34720568
H        5.75941414       1.88821538       1.25949283
H        0.25291100       3.06131834       0.45334364
3
Lattice="6.35016 0.0 0.0 0.0 6.35016 0.0 0.0 0.0 6.35016" Properties=species:S:1:pos:R:3 pbc="T T T"
O        0.20621948       2.55742515       1.34981458
H        5.77887433       1.85192821       1.25304577
H        0.27477434       3.07022387       0.45716504
3
Lattice="6.35016 0.0 0.0 0.0 6.35016 0.0 0.0 0.0 6.35016" Properties=species:S:1:pos:R:3 pbc="T T T"
O        0.20356371       2.55188438       1.35215189
H        5.80362256       1.82090501       1.24635822
H        0.29550444       3.07571200       0.46558262
3
Lattice="6.35016 0.0 0.0 0.0 6.35016 0.0 0.0 0.0 6.35016" Properties=species:S:1:pos:R:3 pbc="T T T"
O        0.20068068       2.54623572       1.35422572
H        5.83342570       1.79536848       1.23925709
H        0.31480378       3.07745061       0.47863334
3
Lattice="6.35016 0.0 0.0 0.0 6.35016 0.0 0.0 0.0 6.35016" Properties=species:S:1:pos:R:3 pbc="T T T"
O        0.19761476       2.54049162       1.35606632
H        5.86777765       1.77521542       1.23157638
H        0.33247044       3.07534496       0.49600528
3
Lattice="6.35016 0.0 0.0 0.0 6.35016 0.0 0.0 0.0 6.35016" Properties=species:S:1:pos:R:3 pbc="T T T"
O        0.19441942       2.53467221       1.35772568
H        5.90589373       1.75995396       1.22314109
H        0.34842242       3.06956326       0.51703752
3
Lattice="6.35016 0.0 0.0 0.0 6.35016 0.0 0.0 0.0 6.35016" Properties=species:S:1:pos:R:3 pbc="T T T"
O        0.19115614       2.52880764       1.35928007
H        5.94673395       1.74864127       1.21374621
H        0.36272743       3.06055912       0.54071555
3
Lattice="6.35016 0.0 0.0 0.0 6.35016 0.0 0.0 0.0 6.35016" Properties=species:S:1:pos:R:3 pbc="T T T"
O        0.18788866       2.52293990       1.36083199
H        5.98903281       1.73983601       1.20313154
H        0.37562803       3.04910292       0.56565796
3
Lattice="6.35016 0.0 0.0 0.0 6.35016 0.0 0.0 0.0 6.35016" Properties=species:S:1:pos:R:3 pbc="T T T"
O        0.18467751       2.51712106       1.36250951
H        6.03138838       1.73162437       1.19096686
H        0.38756112       3.03627566       0.59015180
3
Lattice="6.35016 0.0 0.0 0.0 6.35016 0.0 0.0 0.0 6.35016" Properties=species:S:1:pos:R:3 pbc="T T T"
O        0.18156885       2.51140547       1.36445831
H        6.07245639       1.72180061       1.17685128
H        0.39914318       3.02339849       0.61226185
3
Lattice="6.35016 0.0 0.0 0.0 6.35016 0.0 0.0 0.0 6.35016" Properties=species:S:1:pos:R:3 pbc="T T T"
O        0.17858047       2.50583683       1.36682235
H        6.11122120       1.70828569       1.16038004
H        0.41110479       3.01184945       0.63009393
3
Lattice="6.35016 0.0 0.0 0.0 6.35016 0.0 0.0 0.0 6.35016" Properties=species:S:1:pos:R:3 pbc="T T T"
O        0.17569426       2.50042941       1.36971141
H        6.14727258       1.68970779       1.14126612
H        0.42415055       3.00277196       0.64218203
3
Lattice="6.35016 0.0 0.0 0.0 6.35016 0.0 0.0 0.0 6.35016" Properties=species:S:1:pos:R:3 pbc="T T T"
O        0.17286240       2.49515707       1.37316533
H        6.18088283       1.66589272       1.11950400
H        0.43877243       2.99676046       0.64789311
3
Lattice="6.35016 0.0 0.0 0.0 6.35016 0.0 0.0 0.0 6.35016" Properties=species:S:1:pos:R:3 pbc="T T T"
O        0.17002820       2.48995921       1.37713526
H        6.21284097       1.63794674       1.09546108
H        0.45509825       2.99368698       0.64763332
3
Lattice="6.35016 0.0 0.0 0.0 6.35016 0.0 0.0 0.0 6.35016" Properties=species:S:1:pos:R:3 pbc="T T T"
O        0.16714745       2.48475792       1.38149414
H        6.24411938       1.60788566       1.06985324
H        0.47285355       2.99277802       0.64272859
3
Lattice="6.35016 0.0 0.0 0.0 6.35016 0.0 0.0 0.0 6.35016" Properties=species:S:1:pos:R:3 pbc="T T T"
O        0.16420390       2.47947795       1.38606612
H        6.27557020       1.57805731       1.04360981
H        0.49145939       2.99288718       0.63505175
3
Lattice="6.35016 0.0 0.0 0.0 6.35016 0.0 0.0 0.0 6.35016" Properties=species:S:1:pos:R:3 pbc="T T T"
O        0.16120656       2.47405733       1.39066472
H        6.30776608       1.55067357       1.01772878
H        0.51019046       2.99281339       0.62659613
3
Lattice="6.35016 0.0 0.0 0.0 6.35016 0.0 0.0 0.0 6.35016" Properties=species:S:1:pos:R:3 pbc="T T T"
O        0.15818407       2.46844804       1.39511707
H        6.34097545       1.52752483       0.99315417
H        0.52831699       2.99152583       0.61916130
3
Lattice="6.35016 0.0 0.0 0.0 6.35016 0.0 0.0 0.0 6.35016" Properties=species:S:1:pos:R:3 pbc="T T T"
O        0.15517549       2.46261726       1.39928017
H        0.02505367       1.50989469       0.97072019
H        0.54519800       2.98827036       0.61420894
3
Lattice="6.35016 0.0 0.0 0.0 6.35016 0.0 0.0 0.0 6.35016" Properties=species:S:1:pos:R:3 pbc="T T T"
O        0.15222311       2.45654238       1.40304226
H        0.06014465       1.49859807       0.95113312
H        0.56032548       2.98259439       0.61282194
3
Lattice="6.35016 0.0 0.0 0.0 6.35016 0.0 0.0 0.0 6.35016" Properties=species:S:1:pos:R:3 pbc="T T T"
O        0.14936796       2.45021044       1.40632402
H        0.09578594       1.49400913       0.93495215
H        0.57333778       2.97433366       0.61571564
3
Lattice="6.35016 0.0 0.0 0.0 6.35016 0.0 0.0 0.0 6.35016" Properties=species:S:1:pos:R:3 pbc="T T T"
O        0.14664698       2.44361694       1.40907675
H        0.13159583       1.49609604       0.92257969
H        0.58402809       2.96359421       0.62325830
3
Lattice="6.35016 0.0 0.0 0.0 6.35016 0.0 0.0 0.0 6.35016" Properties=species:S:1:pos:R:3 pbc="T T T"
O        0.14408894       2.43676449       1.41128172
H        0.16715145       1.50445635       0.91426651
H        0.59234604       2.95073240       0.63550630
3
Lattice="6.35016 0.0 0.0 0.0 6.35016 0.0 0.0 0.0 6.35016" Properties=species:S:1:pos:R:3 pbc="T T T"
O        0.14171233       2.42966463       1.41295029
H        0.20203180       1.51828884       0.91007642
H        0.59841844       2.93635913       0.65219560
3
Lattice="6.35016 0.0 0.0 0.0 6.35016 0.0 0.0 0.0 6.35016" Properties=species:S:1:pos:R:3 pbc="T T T"
O        0.13952133       2.42233927       1.41412843
H        0.23585231       1.53637860       0.90986229
H        0.60256363       2.92134380       0.67275125
3
Lattice="6.35016 0.0 0.0 0.0 6.35016 0.0 0.0 0.0 6.35016" Properties=species:S:1:pos:R:3 pbc="T T T"
O        0.13750116       2.41482018       1.41489661
H        0.26832252       1.55706723       0.91322781
H        0.60531465       2.90682200       0.69628406
3
Lattice="6.35016 0.0 0.0 0.0 6.35016 0.0 0.0 0.0 6.35016" Properties=species:S:1:pos:R:3 pbc="T T T"
O        0.13561370       2.40715274       1.41537027
H        0.29930501       1.57825226       0.91949726
H        0.60742138       2.89417756       0.72161250
3
Lattice="6.35016 0.0 0.0 0.0 6.35016 0.0 0.0 0.0 6.35016" Properties=species:S:1:pos:R:3 pbc="T T T"
O        0.13379762       2.39939170       1.41569343
H        0.32886120       1.59749318       0.92773583
H        0.60980078       2.88496399       0.74736963
3
Lattice="6.35016 0.0 0.0 0.0 6.35016 0.0 0.0 0.0 6.35016" Properties=species:S:1:pos:R:3 pbc="T T T"
O        0.13197341       2.39159935       1.41601964
H        0.35728820       1.61224003       0.93684222
H        0.61342507       2.88073942       0.77219787
3
Lattice="6.35016 0.0 0.0 0.0 6.35016 0.0 0.0 0.0 6.35016" Properties=species:S:1:pos:R:3 pbc="T T T"
O        0.13006080       2.38383336       1.41648110
H        0.38505821       1.62028860       0.94577073
H        0.61909970       2.88278474       0.79504492
3
Lattice="6.35016 0.0 0.0 0.0 6.35016 0.0 0.0 0.0 6.35016" Properties=species:S:1:pos:R:3 pbc="T T T"
O        0.12800583       2.37613608       1.41715067
H        0.41265448       1.62029711       0.95380514
H        0.62721362       2.89177606       0.81544830
3
Lattice="6.35016 0.0 0.0 0.0 6.35016 0.0 0.0 0.0 6.35016" Properties=species:S:1:pos:R:3 pbc="T T T"
O        0.12580270       2.36852427       1.41802242
H        0.44036226       1.61216198       0.96077616
H        0.63757569       2.90756002       0.83367034
3
Lattice="6.35016 0.0 0.0 0.0 6.35016 0.0 0.0 0.0 6.35016" Properties=species:S:1:pos:R:3 pbc="T T T"
O        0.12350286       2.36098809       1.41901780
H        0.46811436       1.59703609       0.96707120
H        0.64942426       2.92913310       0.85058952
3
Lattice="6.35016 0.0 0.0 0.0 6.35016 0.0 0.0 0.0 6.35016" Properties=species:S:1:pos:R:3 pbc="T T T"
O        0.12120309       2.35350284       1.42001471
H        0.49550508       1.57695974       0.97344492
H        0.66162673       2.95485004       0.86740138
3
Lattice="6.35016 0.0 0.0 0.0 6.35016 0.0 0.0 0.0 6.35016" Properties=species:S:1:pos:R:3 pbc="T T T"
O        0.11901902       2.34604045       1.42088621
H        0.52191552       1.55432066       0.98074576
H        0.67295941       2.98277417       0.88528177
3
Lattice="6.35016 0.0 0.0 0.0 6.35016 0.0 0.0 0.0 6.35016" Properties=species:S:1:pos:R:3 pbc="T T T"
O        0.11706202       2.33857812       1.42152688
H        0.54667321       1.53142656       0.98971193
H        0.68231053       3.01095573       0.90518654
3
Lattice="6.35016 0.0 0.0 0.0 6.35016 0.0 0.0 0.0 6.35016" Properties=species:S:1:pos:R:3 pbc="T T T"
O        0.11542533       2.33110214       1.42186274
H        0.56917373       1.51024935       1.00086974
H        0.68879773       3.03763447       0.92776339
3
Lattice="6.35016 0.0 0.0 0.0 6.35016 0.0 0.0 0.0 6.35016" Properties=species:S:1:pos:R:3 pbc="T T T"
O        0.11417562       2.32360762       1.42185442
H        0.58895054       1.49232145       1.01451547
H        0.69181367       3.06135162       0.95335568
3
Lattice="6.35016 0.0 0.0 0.0 6.35016 0.0 0.0 0.0 6.35016" Properties=species:S:1:pos:R:3 pbc="T T T"
O        0.11335340       2.31609741       1.42148998
H        0.60569287       1.47875001       1.03074635
H        0.69100860       3.08096244       0.98205574
3
Lattice="6.35016 0.0 0.0 0.0 6.35016 0.0 0.0 0.0 6.35016" Properties=species:S:1:pos:R:3 pbc="T T T"
O        0.11297417       2.30857851       1.42078112
H        0.61926729       1.47021667       1.04948174
H        0.68627856       3.09566191       1.01373853
3
Lattice="6.35016 0.0 0.0 0.0 6.35016 0.0 0.0 0.0 6.35016" Properties=species:S:1:pos:R:3 pbc="T T T"
O        0.11302758       2.30106252       1.41976014
H        0.62971736       1.46701936       1.07050394
H        0.67773569       3.10496922       1.04812020
3
Lattice="6.35016 0.0 0.0 0.0 6.35016 0.0 0.0 0.0 6.35016" Properties=species:S:1:pos:R:3 pbc="T T T"
O        0.11347876       2.29356393       1.41847366
H        0.63728853       1.46906278       1.09346739
H        0.66570467       3.10875531       1.08478850
3
Lattice="6.35016 0.0 0.0 0.0 6.35016 0.0 0.0 0.0 6.35016" Properties=species:S:1:pos:R:3 pbc="T T T"
O        0.11426497       2.28609862       1.41698137
H        0.64244880       1.47584354       1.11791906
H        0.65071645       3.10726664       1.12323287
3
Lattice="6.35016 0.0 0.0 0.0 6.35016 0.0 0.0 0.0 6.35016" Properties=species:S:1:pos:R:3 pbc="T T T"
O        0.11529344       2.27868335       1.41535446
H        0.64593878       1.48640957       1.14331253
H        0.63351673       3.10118459       1.16287375
3
Lattice="6.35016 0.0 0.0 0.0 6.35016 0.0 0.0 0.0 6.35016" Properties=species:S:1:pos:R:3 pbc="T T T"
O        0.11643812       2.27133520       1.41366900
H        0.64880632       1.49933507       1.16902890
H        0.61507485       3.09166957       1.20310474
3
Lattice="6.35016 0.0 0.0 0.0 6.35016 0.0 0.0 0.0 6.35016" Properties=species:S:1:pos:R:3 pbc="T T T"
O        0.11754184       2.26406750       1.41200246
H        0.65240026       1.51276712       1.19442052
H        0.59654921       3.08035771       1.24334615
3
Lattice="6.35016 0.0 0.0 0.0 6.35016 0.0 0.0 0.0 6.35016" Properties=species:S:1:pos:R:3 pbc="T T T"
O        0.11842572       2.25688598       1.41042140
H        0.65830343       1.52458559       1.21888902
H        0.57922705       3.06928691       1.28312781
3
Lattice="6.35016 0.0 0.0 0.0 6.35016 0.0 0.0 0.0 6.35016" Properties=species:S:1:pos:R:3 pbc="T T T"
O        0.11891322       2.24978174       1.40896918
H        0.66809525       1.53278263       1.24200678
H        0.56435225       3.06061252       1.32218218
3
Lattice="6.35016 0.0 0.0 0.0 6.35016 0.0 0.0 0.0 6.35016" Properties=species:S:1:pos:R:3 pbc="T T T"
O        0.11886877       2.24272811       1.40765603
H        0.68297762       1.53599061       1.26362685
H        0.55288513       3.05613172       1.36050629
3
Lattice="6.35016 0.0 0.0 0.0 6.35016 0.0 0.0 0.0 6.35016" Properties=species:S:1:pos:R:3 pbc="T T T"
O        0.11823865       2.23568502       1.40645852
H        0.70337795       1.53393728       1.28390818
H        0.54526506       3.05675683       1.39832212
3
Lattice="6.35016 0.0 0.0 0.0 6.35016 0.0 0.0 0.0 6.35016" Properties=species:S:1:pos:R:3 pbc="T T T"
O        0.11706799       2.22861259       1.40533264
H        0.72876690       1.52754680       1.30323502
H        0.54129761       3.06219803       1.43594022
3
Lattice="6.35016 0.0 0.0 0.0 6.35016 0.0 0.0 0.0 6.35016" Properties=species:S:1:pos:R:3 pbc="T T T"
O        0.11548630       2.22148644       1.40423463
H        0.75781095       1.51860565       1.32206553
H        0.54024621       3.07105631       1.47360333
3
Lattice="6.35016 0.0 0.0 0.0 6.35016 0.0 0.0 0.0 6.35016" Properties=species:S:1:pos:R:3 pbc="T T T"
O        0.11366971       2.21430333       1.40313631
H        0.78874283       1.50921052       1.34079386
H        0.54106487       3.08127664       1.51135992
3
Lattice="6.35016 0.0 0.0 0.0 6.35016 0.0 0.0 0.0 6.35016" Properties=species:S:1:pos:R:3 pbc="T T T"
O        0.11180200       2.20707888       1.40203163
H        0.81972666       1.50130184       1.35968019
H        0.54264378       3.09066472       1.54905441
3
Lattice="6.35016 0.0 0.0 0.0 6.35016 0.0 0.0 0.0 6.35016" Properties=species:S:1:pos:R:3 pbc="T T T"
O        0.11004986       2.19983894       1.40093223
H        0.84910345       1.49641120       1.37883894
H        0.54397541       3.09727435       1.58638243
3
Lattice="6.35016 0.0 0.0 0.0 6.35016 0.0 0.0 0.0 6.35016" Properties=species:S:1:pos:R:3 pbc="T T T"
O        0.10854919       2.19261207       1.39986312
H        0.87552304       1.49558289       1.39826345
H        0.54423392       3.09959946       1.62295503
3
Lattice="6.35016 0.0 0.0 0.0 6.35016 0.0 0.0 0.0 6.35016" Properties=species:S:1:pos:R:3 pbc="T T T"
O        0.10740476       2.18542623       1.39885490
H        0.89794990       1.49940778       1.41785966
H        0.54277408       3.09660498       1.65836664
3
Lattice="6.35016 0.0 0.0 0.0 6.35016 0.0 0.0 0.0 6.35016" Properties=species:S:1:pos:R:3 pbc="T T T"
O        0.10669132       2.17830624       1.39794061
H        0.91566285       1.50807683       1.43747334
H        0.53912211       3.08771221       1.69224049
3
Lattice="6.35016 0.0 0.0 0.0 6.35016 0.0 0.0 0.0 6.35016" Properties=species:S:1:pos:R:3 pbc="T T T"
O        0.10645402       2.17127230       1.39715173
H        0.92825794       1.52142785       1.45691816
H        0.53295705       3.07276584       1.72426002
3
Lattice="6.35016 0.0 0.0 0.0 6.35016 0.0 0.0 0.0 6.35016" Properties=species:S:1:pos:R:3 pbc="T T T"
O        0.10671025       2.16433945       1.39651468
H        0.93564356       1.53898528       1.47599195
H        0.52409147       3.05200063       1.75420357
3
Lattice="6.35016 0.0 0.0 0.0 6.35016 0.0 0.0 0.0 6.35016" Properties=species:S:1:pos:R:3 pbc="T T T"
O        0.10744858       2.15751798       1.39604743
H        0.93807326       1.55997097       1.49449377
H        0.51246521       3.02603844       1.78198120
3
Lattice="6.35016 0.0 0.0 0.0 6.35016 0.0 0.0 0.0 6.35016" Properties=species:S:1:pos:R:3 pbc="T T T"
O        0.10862450       2.15081138       1.39575685
H        0.93619120       1.58330374       1.51224990
H        0.49814040       2.99589506       1.80767833
3
Lattice="6.35016 0.0 0.0 0.0 6.35016 0.0 0.0 0.0 6.35016" Properties=species:S:1:pos:R:3 pbc="T T T"
O        0.11015953       2.14421738       1.39563093
H        0.93107443       1.60760663       1.52913599
H        0.48129495       2.96298751       1.83160205
3
Lattice="6.35016 0.0 0.0 0.0 6.35016 0.0 0.0 0.0 6.35016" Properties=species:S:1:pos:R:3 pbc="T T T"
O        0.11194024       2.13772504       1.39563709
H        0.92425855       1.63124517       1.54510448
H        0.46221411       2.92912071       1.85432629
3
Lattice="6.35016 0.0 0.0 0.0 6.35016 0.0 0.0 0.0 6.35016" Properties=species:S:1:pos:R:3 pbc="T T T"
O        0.11382389       2.13131538       1.39571888
H        0.91767629       1.65243267       1.56020415
H        0.44124988       2.89638627       1.87670685
3
Lattice="6.35016 0.0 0.0 0.0 6.35016 0.0 0.0 0.0 6.35016" Properties=species:S:1:pos:R:3 pbc="T T T"
O        0.11565819       2.12496185       1.39580181
H        0.91342251       1.66944367       1.57456618
H        0.41873914       2.86692737       1.89980289
3
Lattice="6.35016 0.0 0.0 0.0 6.35016 0.0 0.0 0.0 6.35016" Properties=species:S:1:pos:R:3 pbc="T T T"
O        0.11731298       2.11863538       1.39580829
H        0.91335672       1.68090081       1.58834901
H        0.39489765       2.84258397       1.92469432
3
Lattice="6.35016 0.0 0.0 0.0 6.35016 0.0 0.0 0.0 6.35016" Properties=species:S:1:pos:R:3 pbc="T T T"
O        0.11871713       2.11231271       1.39568389
H        0.91860291       1.68608185       1.60163907
H        0.36973045       2.82444442       1.95216917
3
Lattice="6.35016 0.0 0.0 0.0 6.35016 0.0 0.0 0.0 6.35016" Properties=species:S:1:pos:R:3 pbc="T T T"
O        0.11988232       2.10598497       1.39542099
H        0.92920335       1.68508500       1.61436193
H        0.34302097       2.81255445       1.98242057
3
Lattice="6.35016 0.0 0.0 0.0 6.35016 0.0 0.0 0.0 6.35016" Properties=species:S:1:pos:R:3 pbc="T T T"
O        0.12089397       2.09966148       1.39506894
H        0.94413017       1.67875402       1.62626861
H        0.31442246       2.80591605       2.01491485
3
Lattice="6.35016 0.0 0.0 0.0 6.35016 0.0 0.0 0.0 6.35016" Properties=species:S:1:pos:R:3 pbc="T T T"
O        0.12188072       2.09336777       1.39472203
H        0.96163477       1.66841049       1.63699238
H        0.28363364       2.80280651       2.04850167
3
Lattice="6.35016 0.0 0.0 0.0 6.35016 0.0 0.0 0.0 6.35016" Properties=species:S:1:pos:R:3 pbc="T T T"
O        0.12297580       2.08713655       1.39449704
H        0.97971075       1.65554393       1.64615217
H        0.25053108       2.80121395       2.08170412
3
Lattice="6.35016 0.0 0.0 0.0 6.35016 0.0 0.0 0.0 6.35016" Properties=species:S:1:pos:R:3 pbc="T T T"
O        0.12429079       2.08100014       1.39450815
H        0.99647282       1.64157192       1.65343605
H        0.21521804       2.79921193       2.11300450
3
Lattice="6.35016 0.0 0.0 0.0 6.35016 0.0 0.0 0.0 6.35016" Properties=species:S:1:pos:R:3 pbc="T T T"
O        0.12590323       2.07498444       1.39485252
H        1.01036843       1.62770546       1.65864382
H        0.17800515       2.79517495       2.14104992
3
Lattice="6.35016 0.0 0.0 0.0 6.35016 0.0 0.0 0.0 6.35016" Properties=species:S:1:pos:R:3 pbc="T T T"
O        0.12785514       2.06910762       1.39560171
H        1.02025341       1.61490043       1.66169844
H        0.13935655       2.78785626       2.16476288
3
Lattice="6.35016 0.0 0.0 0.0 6.35016 0.0 0.0 0.0 6.35016" Properties=species:S:1:pos:R:3 pbc="T T T"
O        0.13015790       2.06338086       1.39680228
H        1.02539228       1.60386290       1.66264220
H        0.09982248       2.77637498       2.18335881
3
Lattice="6.35016 0.0 0.0 0.0 6.35016 0.0 0.0 0.0 6.35016" Properties=species:S:1:pos:R:3 pbc="T T T"
O        0.13279664       2.05780980       1.39847459
H        1.02544428       1.59505376       1.66162630
H        0.05999276       2.76019280       2.19635187
3
Lattice="6.35016 0.0 0.0 0.0 6.35016 0.0 0.0 0.0 6.35016" Properties=species:S:1:pos:R:3 pbc="T T T"
O        0.13573296       2.05239533       1.40061548
H        1.02044664       1.58869478       1.65890367
H        0.02045202       2.73907198       2.20354013
3
Lattice="6.35016 0.0 0.0 0.0 6.35016 0.0 0.0 0.0 6.35016" Properties=species:S:1:pos:R:3 pbc="T T T"
O        0.13890645       2.04713645       1.40319797
H        1.01082749       1.58476720       1.65483284
H        6.33189415       2.71304788       2.20500809
3
Lattice="6.35016 0.0 0.0 0.0 6.35016 0.0 0.0 0.0 6.35016" Properties=species:S:1:pos:R:3 pbc="T T T"
O        0.14223717       2.04203200       1.40616895
H        0.99742293       1.58299691       1.64987641
H        6.29445024       2.68241782       2.20113958
3
Lattice="6.35016 0.0 0.0 0.0 6.35016 0.0 0.0 0.0 6.35016" Properties=species:S:1:pos:R:3 pbc="T T T"
O        0.14562638       2.03708059       1.40944798
H        0.98151400       1.58282964       1.64460559
H        6.25858853       2.64775160       2.19265291
3
Lattice="6.35016 0.0 0.0 0.0 6.35016 0.0 0.0 0.0 6.35016" Properties=species:S:1:pos:R:3 pbc="T T T"
O        0.14895901       2.03228260       1.41292476
H        0.96482731       1.58342091       1.63969666
H        6.22441750       2.60989322       2.18063523
3
Lattice="6.35016 0.0 0.0 0.0 6.35016 0.0 0.0 0.0 6.35016" Properties=species:S:1:pos:R:3 pbc="T T T"
O        0.15211421       2.02763714       1.41645945
H        0.94944849       1.58367517       1.63590295
H        6.19177977       2.56993750       2.16657540
3
Lattice="6.35016 0.0 0.0 0.0 6.35016 0.0 0.0 0.0 6.35016" Properties=species:S:1:pos:R:3 pbc="T T T"
O        0.15498366       2.02313919       1.41988879
H        0.93758309       1.58237815       1.63399294
H        6.16019954       2.52917735       2.15232202
3
Lattice="6.35016 0.0 0.0 0.0 6.35016 0.0 0.0 0.0 6.35016" Properties=species:S:1:pos:R:3 pbc="T T T"
O        0.15749749       2.01877416       1.42304139
H        0.93112650       1.57843870       1.63464250
H        6.12889864       2.48893721       2.13993388
3
Lattice="6.35016 0.0 0.0 0.0 6.35016 0.0 0.0 0.0 6.35016" Properties=species:S:1:pos:R:3 pbc="T T T"
O        0.15964874       2.01451384       1.42576682
H        0.93113018       1.57120313       1.63830870
H        6.09693835       2.45031319       2.13135361
3
Lattice="6.35016 0.0 0.0 0.0 6.35016 0.0 0.0 0.0 6.35016" Properties=species:S:1:pos:R:3 pbc="T T T"
O        0.16149708       2.01032140       1.42797039
H        0.93744548       1.56067806       1.64514306
H        6.06351746       2.41388734       2.12794624
3
Lattice="6.35016 0.0 0.0 0.0 6.35016 0.0 0.0 0.0 6.35016" Properties=species:S:1:pos:R:3 pbc="T T T"
O        0.16314380       2.00616236       1.42963756
H        0.94875861       1.54752504       1.65499203
H        6.02832576       2.37955570       2.13010891
3
Lattice="6.35016 0.0 0.0 0.0 6.35016 0.0 0.0 0.0 6.35016" Properties=species:S:1:pos:R:3 pbc="T T T"
O        0.16469413       2.00201196       1.43083285
H        0.96300075       1.53283877       1.66747562
H        5.99176764       2.34661355       2.13717391
3
Lattice="6.35016 0.0 0.0 0.0 6.35016 0.0 0.0 0.0 6.35016" Properties=species:S:1:pos:R:3 pbc="T T T"
O        0.16622490       1.99785806       1.43167983
H        0.97787638       1.51784293       1.68209858
H        5.95488991       2.31403475       2.14766964
3
Lattice="6.35016 0.0 0.0 0.0 6.35016 0.0 0.0 0.0 6.35016" Properties=species:S:1:pos:R:3 pbc="T T T"
O        0.16777961       1.99369414       1.43232482
H        0.99128582       1.50365166       1.69833816
H        5.91911628       2.28081002       2.15977946
3
Lattice="6.35016 0.0 0.0 0.0 6.35016 0.0 0.0 0.0 6.35016" Properties=species:S:1:pos:R:3 pbc="T T T"
O        0.16937001       1.98951427       1.43291024
H        1.00153625       1.49115003       1.71569353
H        5.88593339       2.24615161       2.17171351
3
Lattice="6.35016 0.0 0.0 0.0 6.35016 0.0 0.0 0.0 6.35016" Properties=species:S:1:pos:R:3 pbc="T T T"
O        0.17099012       1.98530989       1.43355973
H        1.00741713       1.48095599       1.73371668
H        5.85665287       2.20957951       2.18196216
3
Lattice="6.35016 0.0 0.0 0.0 6.35016 0.0 0.0 0.0 6.35016" Properties=species:S:1:pos:R:3 pbc="T T T"
O        0.17262199       1.98107046       1.43437014
H        1.00817972       1.47343632       1.75201721
H        5.83230090       2.17089567       2.18935470
3
Lattice="6.35016 0.0 0.0 0.0 6.35016 0.0 0.0 0.0 6.35016" Properties=species:S:1:pos:R:3 pbc="T T T"
O        0.17424185       1.97678468       1.43541563
H        1.00349858       1.46873448       1.77026433
H        5.81359180       2.13013850       2.19304979
3
Lattice="6.35016 0.0 0.0 0.0 6.35016 0.0 0.0 0.0 6.35016" Properties=species:S:1:pos:R:3 pbc="T T T"
O        0.17582113       1.97244409       1.43674472
H        0.99345840       1.46678085       1.78820283
H        5.80090456       2.08752283       2.19252089
3
Lattice="6.35016 0.0 0.0 0.0 6.35016 0.0 0.0 0.0 6.35016" Properties=species:S:1:pos:R:3 pbc="T T T"
O        0.17732606       1.96804394       1.43838249
H        0.97852702       1.46730918       1.80566977
H        5.79430071       2.04338954       2.18751963
3
Lattice="6.35016 0.0 0.0 0.0 6.35016 0.0 0.0 0.0 6.35016" Properties=species:S:1:pos:R:3 pbc="T T T"
O        0.17872074       1.96358701       1.44033123
H        0.95955871       1.46985636       1.82262108
H        5.79351482       1.99816402       2.17806189
3
Lattice="6.35016 0.0 0.0 0.0 6.35016 0.0 0.0 0.0 6.35016" Properties=species:S:1:pos:R:3 pbc="T T T"
O        0.17996531       1.95908469       1.44256661
H        0.93780052       1.47376025       1.83916452
H        5.79792450       1.95231370       2.16443445
3
Lattice="6.35016 0.0 0.0 0.0 6.35016 0.0 0.0 0.0 6.35016" Properties=species:S:1:pos:R:3 pbc="T T T"
O        0.18102268       1.95456096       1.44503479
H        0.91486590       1.47817710       1.85557981
H        5.80650451       1.90630127       2.14721821
3
Lattice="6.35016 0.0 0.0 0.0 6.35016 0.0 0.0 0.0 6.35016" Properties=species:S:1:pos:R:3 pbc="T T T"
O        0.18186560       1.95005063       1.44765391
H        0.89262847       1.48215230       1.87230327
H        5.81781021       1.86052385       2.12729179
3
Lattice="6.35016 0.0 0.0 0.0 6.35016 0.0 0.0 0.0 6.35016" Properties=species:S:1:pos:R:3 pbc="T T T"
O        0.18248887       1.94559739       1.45031781
H        0.87304311       1.48473180       1.88986890
H        5.82997432       1.81524054       2.10582190
3
Lattice="6.35016 0.0 0.0 0.0 6.35016 0.0 0.0 0.0 6.35016" Properties=species:S:1:pos:R:3 pbc="T T T"
O        0.18292011       1.94124512       1.45291210
H        0.85782222       1.48516424       1.90875999
H        5.84084453       1.77049744       2.08414385
3
Lattice="6.35016 0.0 0.0 0.0 6.35016 0.0 0.0 0.0 6.35016" Properties=species:S:1:pos:R:3 pbc="T T T"
O        0.18322485       1.93702702       1.45534034
H        0.84810724       1.48309873       1.92922833
H        5.84824494       1.72611116       2.06355206
3
Lattice="6.35016 0.0 0.0 0.0 6.35016 0.0 0.0 0.0 6.35016" Properties=species:S:1:pos:R:3 pbc="T T T"
O        0.18349194       1.93295359       1.45755280
H        0.84423650       1.47870893       1.95113956
H        5.85041473       1.68174253       2.04496723
3
Lattice="6.35016 0.0 0.0 0.0 6.35016 0.0 0.0 0.0 6.35016" Properties=species:S:1:pos:R:3 pbc="T T T"
O        0.18380729       1.92900150       1.45956910
H        0.84573520       1.47265894       1.97394343
H        5.84644886       1.63709030       2.02864288
3
Lattice="6.35016 0.0 0.0 0.0 6.35016 0.0 0.0 0.0 6.35016" Properties=species:S:1:pos:R:3 pbc="T T T"
O        0.18422760       1.92511298       1.46147402
H        0.85151613       1.46592739       1.99678203
H        5.83652902       1.59210297       2.01407555
3
Lattice="6.35016 0.0 0.0 0.0 6.35016 0.0 0.0 0.0 6.35016" Properties=species:S:1:pos:R:3 pbc="T T T"
O        0.18476832       1.92120122       1.46339621
H        0.86017089       1.45958269       2.01867376
H        5.82181507       1.54709196       2.00019321
3
Lattice="6.35016 0.0 0.0 0.0 6.35016 0.0 0.0 0.0 6.35016" Properties=species:S:1:pos:R:3 pbc="T T T"
O        0.18541077       1.91716525       1.46547494
H        0.87023850       1.45459908       2.03867981
H        5.80407126       1.50269723       1.98570462
3
Lattice="6.35016 0.0 0.0 0.0 6.35016 0.0 0.0 0.0 6.35016" Properties=species:S:1:pos:R:3 pbc="T T T"
O        0.18611582       1.91290505       1.46783402
H        0.88038733       1.45174837       2.05601721
H        5.78524970       1.45973941       1.96941843
3
Lattice="6.35016 0.0 0.0 0.0 6.35016 0.0 0.0 0.0 6.35016" Properties=species:S:1:pos:R:3 pbc="T T T"
O        0.18683790       1.90833389       1.47056650
H        0.88951492       1.45156485       2.07010803
H        5.76717950       1.41907381       1.95042561
3
Lattice="6.35016 0.0 0.0 0.0 6.35016 0.0 0.0 0.0 6.35016" Properties=species:S:1:pos:R:3 pbc="T T T"
O        0.18753261       1.90338477       1.47373046
H        0.89678585       1.45434692       2.08059468
H        5.75140849       1.38146848       1.92815090
3
Lattice="6.35016 0.0 0.0 0.0 6.35016 0.0 0.0 0.0 6.35016" Properties=species:S:1:pos:R:3 pbc="T T T"
O        0.18815899       1.89801361       1.47735069
H        0.90164074       1.46017592       2.08734160
H        5.73915072       1.34755602       1.90232835
3
Lattice="6.35016 0.0 0.0 0.0 6.35016 0.0 0.0 0.0 6.35016" Properties=species:S:1:pos:R:3 pbc="T T T"
O        0.18867894       1.89219959       1.48142248
H        0.90380392       1.46893387       2.09043546
H        5.73128769       1.31779905       1.87295239
3
Lattice="6.35016 0.0 0.0 0.0 6.35016 0.0 0.0 0.0 6.35016" Properties=species:S:1:pos:R:3 pbc="T T T"
O        0.18905607       1.88594386       1.48591369
H        0.90329229       1.48031660       2.09019326
H        5.72838192       1.29247480       1.84022506
3
Lattice="6.35016 0.0 0.0 0.0 6.35016 0.0 0.0 0.0 6.35016" Properties=species:S:1:pos:R:3 pbc="T T T"
O        0.18925388       1.87927181       1.49076591
H        0.90043053       1.49384568       2.08717383
H        5.73069757       1.27167244       1.80450750
3
Lattice="6.35016 0.0 0.0 0.0 6.35016 0.0 0.0 0.0 6.35016" Properties=species:S:1:pos:R:3 pbc="T T T"
O        0.18923413       1.87223228       1.49589767
H        0.89587206       1.50887771       2.08219384
H        5.73819489       1.25526331       1.76628780
3
Lattice="6.35016 0.0 0.0 0.0 6.35016 0.0 0.0 0.0 6.35016" Properties=species:S:1:pos:R:3 pbc="T T T"
O        0.18895803       1.86489740       1.50120494
H        0.89059762       1.52463182       2.07631550
H        5.75051045       1.24286525       1.72615269
3
Lattice="6.35016 0.0 0.0 0.0 6.35016 0.0 0.0 0.0 6.35016" Properties=species:S:1:pos:R:3 pbc="T T T"
O        0.18839299       1.85736490       1.50656867
H        0.88586751       1.54024363       2.07079854
H        5.76691133       1.23378198       1.68474895
3
Lattice="6.35016 0.0 0.0 0.0 6.35016 0.0 0.0 0.0 6.35016" Properties=species:S:1:pos:R:3 pbc="T T T"
O        0.18752194       1.84975366       1.51186400
H        0.88307008       1.55485738       2.06696692
H        5.78626928       1.22696458       1.64274461
3
Lattice="6.35016 0.0 0.0 0.0 6.35016 0.0 0.0 0.0 6.35016" Properties=species:S:1:pos:R:3 pbc="T T T"
O        0.18636164       1.84219958       1.51697937
H        0.88345883       1.56774293       2.06599738
H        5.80706422       1.22097149       1.60075303
3
Lattice="6.35016 0.0 0.0 0.0 6.35016 0.0 0.0 0.0 6.35016" Properties=species:S:1:pos:R:3 pbc="T T T"
O        0.18497527       1.83484362       1.52183801
H        0.88781555       1.57841285       2.06865320
H        5.82751249       1.21403813       1.55924540
3
Lattice="6.35016 0.0 0.0 0.0 6.35016 0.0 0.0 0.0 6.35016" Properties=species:S:1:pos:R:3 pbc="T T T"
O        0.18347098       1.82781462       1.52641482
H        0.89616373       1.58667898       2.07507563
H        5.84585601       1.20429305       1.51846410
3
Lattice="6.35016 0.0 0.0 0.0 6.35016 0.0 0.0 0.0 6.35016" Properties=species:S:1:pos:R:3 pbc="T T T"
O        0.18197857       1.82120779       1.53074188
H        0.90773200       1.59260190       2.08476877
H        5.86079921       1.19013905       1.47840850
3
Lattice="6.35016 0.0 0.0 0.0 6.35016 0.0 0.0 0.0 6.35016" Properties=species:S:1:pos:R:3 pbc="T T T"
O        0.18060636       1.81506287       1.53488778
H        0.92115624       1.59638711       2.09675584
H        5.87198235       1.17074337       1.43895210
3
Lattice="6.35016 0.0 0.0 0.0 6.35016 0.0 0.0 0.0 6.35016" Properties=species:S:1:pos:R:3 pbc="T T T"
O        0.17940847       1.80935299       1.53893232
H        0.93482134       1.59826269       2.10984009
H        5.88013335       1.14629126       1.40002403
3
Lattice="6.35016 0.0 0.0 0.0 6.35016 0.0 0.0 0.0 6.35016" Properties=species:S:1:pos:R:3 pbc="T T T"
O        0.17838457       1.80399835       1.54294086
H        0.94717209       1.59841973       2.12282998
H        5.88682718       1.11789328       1.36176343
3
Lattice="6.35016 0.0 0.0 0.0 6.35016 0.0 0.0 0.0 6.35016" Properties=species:S:1:pos:R:3 pbc="T T T"
O        0.17749351       1.79888545       1.54695263
H        0.95693419       1.59697704       2.13470535
H        5.89399797       1.08722524       1.32457975
3
Lattice="6.35016 0.0 0.0 0.0 6.35016 0.0 0.0 0.0 6.35016" Properties=species:S:1:pos:R:3 pbc="T T T"
O        0.17667720       1.79389658       1.55097946
H        0.96318941       1.59399602       2.14467688
H        5.90347844       1.05610876       1.28905340
3
Lattice="6.35016 0.0 0.0 0.0 6.35016 0.0 0.0 0.0 6.35016" Properties=species:S:1:pos:R:3 pbc="T T T"
O        0.17587917       1.78892618       1.55501550
H        0.96538885       1.58950004       2.15220664
H        5.91672818       1.02620859       1.25582885
3
Lattice="6.35016 0.0 0.0 0.0 6.35016 0.0 0.0 0.0 6.35016" Properties=species:S:1:pos:R:3 pbc="T T T"
O        0.17504794       1.78388815       1.55904042
H        0.96335020       1.58348682       2.15701225
H        5.93475120       0.99889446       1.22551185
3
Lattice="6.35016 0.0 0.0 0.0 6.35016 0.0 0.0 0.0 6.35016" Properties=species:S:1:pos:R:3 pbc="T T T"
O        0.17413936       1.77871989       1.56302622
H        0.95722744       1.57593826       2.15905662
H        5.95810976       0.97520518       1.19860134
3
Lattice="6.35016 0.0 0.0 0.0 6.35016 0.0 0.0 0.0 6.35016" Properties=species:S:1:pos:R:3 pbc="T T T"
O        0.17311146       1.77337711       1.56693595
H        0.94749848       1.56682483       2.15854950
H        5.98698819       0.95586958       1.17546129
3
Lattice="6.35016 0.0 0.0 0.0 6.35016 0.0 0.0 0.0 6.35016" Properties=species:S:1:pos:R:3 pbc="T T T"
O        0.17192436       1.76783673       1.57072928
H        0.93494504       1.55610537       2.15594530
H        6.02124641       0.94130993       1.15629543
3
Lattice="6.35016 0.0 0.0 0.0 6.35016 0.0 0.0 0.0 6.35016" Properties=species:S:1:pos:R:3 pbc="T T T"
O        0.17053729       1.76209523       1.57436208
H        0.92062689       1.54372358       2.15193333
H        6.06046576       0.93164175       1.14111861
3
Lattice="6.35016 0.0 0.0 0.0 6.35016 0.0 0.0 0.0 6.35016" Properties=species:S:1:pos:R:3 pbc="T T T"
O        0.16891273       1.75616901       1.57779104
H        0.90581845       1.52961327       2.14740211
H        6.10397770       0.92665872       1.12972185
3
Lattice="6.35016 0.0 0.0 0.0 6.35016 0.0 0.0 0.0 6.35016" Properties=species:S:1:pos:R:3 pbc="T T T"
O        0.16702057       1.75009794       1.58098308
H        0.89189642       1.51372314       2.14336385
H        6.15088753       0.92578487       1.12163067
3
Lattice="6.35016 0.0 0.0 0.0 6.35016 0.0 0.0 0.0 6.35016" Properties=species:S:1:pos:R:3 pbc="T T T"
O        0.16484730       1.74394260       1.58392371
H        0.88015262       1.49605763       2.14082271
H        6.20012045       0.92803194       1.11606069
3
Lattice="6.35016 0.0 0.0 0.0 6.35016 0.0 0.0 0.0 6.35016" Properties=species:S:1:pos:R:3 pbc="T T T"
O        0.16240572       1.73778402       1.58663174
H        0.87156486       1.47674317       2.14060592
H        6.25049538       0.93198123       1.11188889
3
Lattice="6.35016 0.0 0.0 0.0 6.35016 0.0 0.0 0.0 6.35016" Properties=species:S:1:pos:R:3 pbc="T T T"
O        0.15973910       1.73171187       1.58916424
H        0.86659281       1.45608864       2.14320891
H        6.30086060       0.93588537       1.10770432
3
Lattice="6.35016 0.0 0.0 0.0 6.35016 0.0 0.0 0.0 6.35016" Properties=species:S:1:pos:R:3 pbc="T T T"
O        0.15691658       1.72580749       1.59161261
H        0.86508750       1.43461265       2.14871761
H        0.00010141       0.93792733       1.10196632
3
Lattice="6.35016 0.0 0.0 0.0 6.35016 0.0 0.0 0.0 6.35016" Properties=species:S:1:pos:R:3 pbc="T T T"
O        0.15401945       1.72011845       1.59408092
H        0.86636255       1.41300674       2.15684385
H        0.04792713       0.93664822       1.09329739
3
Lattice="6.35016 0.0 0.0 0.0 6.35016 0.0 0.0 0.0 6.35016" Properties=species:S:1:pos:R:3 pbc="T T T"
O        0.15112809       1.71463471       1.59665794
H        0.86936802       1.39205991       2.16703865
H        0.09393747       0.93143531       1.08084086
3
Lattice="6.35016 0.0 0.0 0.0 6.35016 0.0 0.0 0.0 6.35016" Properties=species:S:1:pos:R:3 pbc="T T T"
O        0.14831554       1.70927758       1.59939175
H        0.87291433       1.37254841       2.17863118
H        0.13814824       0.92273800       1.06448069
3
Lattice="6.35016 0.0 0.0 0.0 6.35016 0.0 0.0 0.0 6.35016" Properties=species:S:1:pos:R:3 pbc="T T T"
O        0.14564879       1.70392103       1.60228729
H        0.87585128       1.35515615       2.19094751
H        0.18063557       0.91191523       1.04481932
3
Lattice="6.35016 0.0 0.0 0.0 6.35016 0.0 0.0 0.0 6.35016" Properties=species:S:1:pos:R:3 pbc="T T T"
O        0.14319001       1.69841538       1.60531232
H        0.87718557       1.34041705       2.20338220
H        0.22139287       0.90082779       1.02296093
3
Lattice="6.35016 0.0 0.0 0.0 6.35016 0.0 0.0 0.0 6.35016" Properties=species:S:1:pos:R:3 pbc="T T T"
O        0.14099686       1.69261845       1.60841653
H        0.87614453       1.32869770       2.21545004
H        0.26027128       0.89135894       1.00019313
3
Lattice="6.35016 0.0 0.0 0.0 6.35016 0.0 0.0 0.0 6.35016" Properties=species:S:1:pos:R:3 pbc="T T T"
O        0.13911759       1.68641771       1.61154316
H        0.87220210       1.32020493       2.22680889
H        0.29702448       0.88512359       0.97776589
3
Lattice="6.35016 0.0 0.0 0.0 6.35016 0.0 0.0 0.0 6.35016" Properties=species:S:1:pos:R:3 pbc="T T T"
O        0.13758866       1.67973232       1.61463620
H        0.86507252       1.31499082       2.23726227
H        0.33135344       0.88334999       0.95677397
3
Lattice="6.35016 0.0 0.0 0.0 6.35016 0.0 0.0 0.0 6.35016" Properties=species:S:1:pos:R:3 pbc="T T T"
O        0.13643084       1.67251784       1.61764268
H        0.85471871       1.31296480       2.24678478
H        0.36296098       0.88685966       0.93809167
3
Lattice="6.35016 0.0 0.0 0.0 6.35016 0.0 0.0 0.0 6.35016" Properties=species:S:1:pos:R:3 pbc="T T T"
O        0.13564755       1.66476030       1.62051289
H        0.84134540       1.31389903       2.25552425
H        0.39159627       0.89610315       0.92236931
3
Lattice="6.35016 0.0 0.0 0.0 6.35016 0.0 0.0 0.0 6.35016" Properties=species:S:1:pos:R:3 pbc="T T T"
O        0.13522259       1.65647346       1.62319875
H        0.82538630       1.31743683       2.26381763
H        0.41707025       0.91121570       0.91004111
3
Lattice="6.35016 0.0 0.0 0.0 6.35016 0.0 0.0 0.0 6.35016" Properties=species:S:1:pos:R:3 pbc="T T T"
O        0.13512131       1.64769608       1.62565341
H        0.80749879       1.32310651       2.27219838
H        0.43928280       0.93204505       0.90132374
3
Lattice="6.35016 0.0 0.0 0.0 6.35016 0.0 0.0 0.0 6.35016" Properties=species:S:1:pos:R:3 pbc="T T T"
O        0.13529022       1.63848937       1.62783361
H        0.78852058       1.33035026       2.28137614
H        0.45825485       0.95817679       0.89620475
3
Lattice="6.35016 0.0 0.0 0.0 6.35016 0.0 0.0 0.0 6.35016" Properties=species:S:1:pos:R:3 pbc="T T T"
O        0.13565948       1.62893333       1.62970532
H        0.76939548       1.33856578       2.29217947
H        0.47416499       0.98892642       0.89439946
3
Lattice="6.35016 0.0 0.0 0.0 6.35016 0.0 0.0 0.0 6.35016" Properties=species:S:1:pos:R:3 pbc="T T T"
O        0.13614749       1.61912366       1.63125437
H        0.75104079       1.34717692       2.30543689
H        0.48739707       1.02333470       0.89529547
3
Lattice="6.35016 0.0 0.0 0.0 6.35016 0.0 0.0 0.0 6.35016" Properties=species:S:1:pos:R:3 pbc="T T T"
O        0.13666903       1.60916706       1.63250364
H        0.73418505       1.35570918       2.32179319
H        0.49859215       1.06017248       0.89789288
3
Lattice="6.35016 0.0 0.0 0.0 6.35016 0.0 0.0 0.0 6.35016" Properties=species:S:1:pos:R:3 pbc="T T T"
O        0.13714009       1.59917305       1.63352335
H        0.71923227       1.36384698       2.34151494
H        0.50867741       1.09800515       0.90078702
3
Lattice="6.35016 0.0 0.0 0.0 6.35016 0.0 0.0 0.0 6.35016" Properties=species:S:1:pos:R:3 pbc="T T T"
O        0.13748554       1.58924502       1.63444025
H        0.70618358       1.37145834       2.36433793
H        0.51886376       1.13530847       0.90222648
3
Lattice="6.35016 0.0 0.0 0.0 6.35016 0.0 0.0 0.0 6.35016" Properties=species:S:1:pos:R:3 pbc="T T T"
O        0.13764245       1.57946558       1.63541798
H        0.69467963       1.37856481       2.38944697
H        0.53050138       1.17074337       0.90040684
3
Lattice="6.35016 0.0 0.0 0.0 6.35016 0.0 0.0 0.0 6.35016" Properties=species:S:1:pos:R:3 pbc="T T T"
O        0.13756999       1.56988268       1.63662077
H        0.68415614       1.38526924       2.41560753
H        0.54482747       1.20344410       0.89392561
3
Lattice="6.35016 0.0 0.0 0.0 6.35016 0.0 0.0 0.0 6.35016" Properties=species:S:1:pos:R:3 pbc="T T T"
O        0.13725757       1.56050076       1.63816633
H        0.67400693       1.39169783       2.44138137
H        0.56261205       1.23322876       0.88235206
3
Lattice="6.35016 0.0 0.0 0.0 6.35016 0.0 0.0 0.0 6.35016" Properties=species:S:1:pos:R:3 pbc="T T T"
O        0.13673057       1.55128440       1.64009005
H        0.66374012       1.39794588       2.46538091
H        0.58393398       1.26055191       0.86649635
3
Lattice="6.35016 0.0 0.0 0.0 6.35016 0.0 0.0 0.0 6.35016" Properties=species:S:1:pos:R:3 pbc="T T T"
O        0.13604722       1.54217839       1.64235103
H        0.65302251       1.40408127       2.48639632
H        0.60819648       1.28623805       0.84823062
3
Lattice="6.35016 0.0 0.0 0.0 6.35016 0.0 0.0 0.0 6.35016" Properties=species:S:1:pos:R:3 pbc="T T T"
O        0.13528108       1.53312738       1.64485610
H        0.64171739       1.41013469       2.50352753
H        0.63436447       1.31114224       0.82995537
3
Lattice="6.35016 0.0 0.0 0.0 6.35016 0.0 0.0 0.0 6.35016" Properties=species:S:1:pos:R:3 pbc="T T T"
O        0.13450445       1.52408863       1.64748856
H        0.62986227       1.41611197       2.51621972
H        0.66124400       1.33593371       0.81407387
3
Lattice="6.35016 0.0 0.0 0.0 6.35016 0.0 0.0 0.0 6.35016" Properties=species:S:1:pos:R:3 pbc="T T T"
O        0.13377615       1.51503591       1.65013270
H        0.61764882       1.42200143       2.52428239
H        0.68770404       1.36102344       0.80262473
3
Lattice="6.35016 0.0 0.0 0.0 6.35016 0.0 0.0 0.0 6.35016" Properties=species:S:1:pos:R:3 pbc="T T T"
O        0.13313720       1.50595949       1.65268312
H        0.60538679       1.42778642       2.52787385
H        0.71277434       1.38659547       0.79715127
3
Lattice="6.35016 0.0 0.0 0.0 6.35016 0.0 0.0 0.0 6.35016" Properties=species:S:1:pos:R:3 pbc="T T T"
O        0.13261096       1.49685889       1.65504309
H        0.59348976       1.43345273       2.52749678
H        0.73567099       1.41265831       0.79869379
3
Lattice="6.35016 0.0 0.0 0.0 6.35016 0.0 0.0 0.0 6.35016" Properties=species:S:1:pos:R:3 pbc="T T T"
O        0.13220265       1.48774120       1.65712689
H        0.58245071       1.43899515       2.52397828
H        0.75582024       1.43910323       0.80780608
3
Lattice="6.35016 0.0 0.0 0.0 6.35016 0.0 0.0 0.0 6.35016" Properties=species:S:1:pos:R:3 pbc="T T T"
O        0.13190114       1.47861710       1.65885839
H        0.57280786       1.44442657       2.51842392
H        0.77285137       1.46575835       0.82460936
3
Lattice="6.35016 0.0 0.0 0.0 6.35016 0.0 0.0 0.0 6.35016" Properties=species:S:1:pos:R:3 pbc="T T T"
O        0.13168352       1.46949669       1.66017427
H        0.56509236       1.44978553       2.51212431
H        0.78660429       1.49242654       0.84881135
3
Lattice="6.35016 0.0 0.0 0.0 6.35016 0.0 0.0 0.0 6.35016" Properties=species:S:1:pos:R:3 pbc="T T T"
O        0.13151639       1.46038827       1.66103440
H        0.55975670       1.45513669       2.50642257
H        0.79716670       1.51891763       0.87970494
3
Lattice="6.35016 0.0 0.0 0.0 6.35016 0.0 0.0 0.0 6.35016" Properties=species:S:1:pos:R:3 pbc="T T T"
O        0.13135706       1.45129567       1.66143700
H        0.55708430       1.46056309       2.50252319
H        0.80493930       1.54509350       0.91613511
3
Lattice="6.35016 0.0 0.0 0.0 6.35016 0.0 0.0 0.0 6.35016" Properties=species:S:1:pos:R:3 pbc="T T T"
O        0.13115792       1.44221513       1.66142633
H        0.55708582       1.46614621       2.50127462
H        0.81067025       1.57092735       0.95652378
3
Lattice="6.35016 0.0 0.0 0.0 6.35016 0.0 0.0 0.0 6.35016" Properties=species:S:1:pos:R:3 pbc="T T T"
O        0.13086594       1.43313459       1.66110229
H        0.55945716       1.47193426       2.50305089
H        0.81551530       1.59655596       0.99890182
3
Lattice="6.35016 0.0 0.0 0.0 6.35016 0.0 0.0 0.0 6.35016" Properties=species:S:1:pos:R:3 pbc="T T T"
O        0.13042860       1.42403430       1.66060926
H        0.56357321       1.47790735       2.50770714
H        0.82093141       1.62231341       1.04110232
3
Lattice="6.35016 0.0 0.0 0.0 6.35016 0.0 0.0 0.0 6.35016" Properties=species:S:1:pos:R:3 pbc="T T T"
O        0.12980368       1.41488899       1.66010944
H        0.56858031       1.48395594       2.51470527
H        0.82845064       1.64870741       1.08107169
3
Lattice="6.35016 0.0 0.0 0.0 6.35016 0.0 0.0 0.0 6.35016" Properties=species:S:1:pos:R:3 pbc="T T T"
O        0.12897816       1.40567809       1.65974754
H        0.57351057       1.48988102       2.52326814
H        0.83924299       1.67628310       1.11727795
3
Lattice="6.35016 0.0 0.0 0.0 6.35016 0.0 0.0 0.0 6.35016" Properties=species:S:1:pos:R:3 pbc="T T T"
O        0.12798906       1.39639663       1.65961971
H        0.57740201       1.49541296       2.53255405
H        0.85366928       1.70538494       1.14901808
3
Lattice="6.35016 0.0 0.0 0.0 6.35016 0.0 0.0 0.0 6.35016" Properties=species:S:1:pos:R:3 pbc="T T T"
O        0.12693170       1.38706793       1.65976456
H        0.57940485       1.50024568       2.54179956
H        0.87107323       1.73594368       1.17644233
3
Lattice="6.35016 0.0 0.0 0.0 6.35016 0.0 0.0 0.0 6.35016" Properties=species:S:1:pos:R:3 pbc="T T T"
O        0.12594082       1.37774373       1.66017726
H        0.57882731       1.50406569       2.55037291
H        0.88997772       1.76744276       1.20026825
3
Lattice="6.35016 0.0 0.0 0.0 6.35016 0.0 0.0 0.0 6.35016" Properties=species:S:1:pos:R:3 pbc="T T T"
O        0.12516642       1.36849637       1.66082809
H        0.57516561       1.50658111       2.55780940
H        0.90849948       1.79902528       1.22142616
3
Lattice="6.35016 0.0 0.0 0.0 6.35016 0.0 0.0 0.0 6.35016" Properties=species:S:1:pos:R:3 pbc="T T T"
O        0.12474419       1.35940415       1.66168148
H        0.56809986       1.50754030       2.56382922
H        0.92478390       1.82968449       1.24077034
3
Lattice="6.35016 0.0 0.0 0.0 6.35016 0.0 0.0 0.0 6.35016" Properties=species:S:1:pos:R:3 pbc="T T T"
O        0.12478122       1.35054092       1.66270132
H        0.55748423       1.50674596       2.56834437
H        0.93727492       1.85844087       1.25895732
3
Lattice="6.35016 0.0 0.0 0.0 6.35016 0.0 0.0 0.0 6.35016" Properties=species:S:1:pos:R:3 pbc="T T T"
O        0.12534879       1.34196820       1.66385413
H        0.54332731       1.50405959       2.57146433
H        0.94481268       1.88444129       1.27641924
3
Lattice="6.35016 0.0 0.0 0.0 6.35016 0.0 0.0 0.0 6.35016" Properties=species:S:1:pos:R:3 pbc="T T T"
O        0.12648573       1.33373350       1.66510568
H        0.52577299       1.49940562       2.57349391
H        0.94662997       1.90699883       1.29340135
3
Lattice="6.35016 0.0 0.0 0.0 6.35016 0.0 0.0 0.0 6.35016" Properties=species:S:1:pos:R:3 pbc="T T T"
O        0.12820192       1.32586877       1.66641845
H        0.50508125       1.49276996       2.57493298
H        0.94231478       1.92561007       1.30999565
3
Lattice="6.35016 0.0 0.0 0.0 6.35016 0.0 0.0 0.0 6.35016" Properties=species:S:1:pos:R:3 pbc="T T T"
O        0.13048112       1.31839044       1.66775243
H        0.48159982       1.48419775       2.57645289
H        0.93177130       1.93996512       1.32618062
3
Lattice="6.35016 0.0 0.0 0.0 6.35016 0.0 0.0 0.0 6.35016" Properties=species:S:1:pos:R:3 pbc="T T T"
O        0.13328719       1.31129966       1.66906501
H        0.45572057       1.47378222       2.57884659
H        0.91519617       1.94996097       1.34184939
3
Lattice="6.35016 0.0 0.0 0.0 6.35016 0.0 0.0 0.0 6.35016" Properties=species:S:1:pos:R:3 pbc="T T T"
O        0.13656584       1.30458024       1.67031649
H        0.42783149       1.46164541       2.58292739
H        0.89308104       1.95573269       1.35681602
3
Lattice="6.35016 0.0 0.0 0.0 6.35016 0.0 0.0 0.0 6.35016" Properties=species:S:1:pos:R:3 pbc="T T T"
O        0.14024481       1.29819763       1.67147946
H        0.39826572       1.44791548       2.58939782
H        0.86623758       1.95770727       1.37081888
3
Lattice="6.35016 0.0 0.0 0.0 6.35016 0.0 0.0 0.0 6.35016" Properties=species:S:1:pos:R:3 pbc="T T T"
O        0.14423582       1.29209544       1.67254915
H        0.36727147       1.43270481       2.59868366
H        0.83582603       1.95667582       1.38351323
3
Lattice="6.35016 0.0 0.0 0.0 6.35016 0.0 0.0 0.0 6.35016" Properties=species:S:1:pos:R:3 pbc="T T T"
O        0.14843397       1.28619106       1.67355165
H        0.33500460       1.41610384       2.61078814
H        0.80336846       1.95387057       1.39446681
3
Lattice="6.35016 0.0 0.0 0.0 6.35016 0.0 0.0 0.0 6.35016" Properties=species:S:1:pos:R:3 pbc="T T T"
O        0.15271773       1.28037247       1.67454970
H        0.30155773       1.39819093       2.62522060
H        0.77071892       1.95101236       1.40316945
3
Lattice="6.35016 0.0 0.0 0.0 6.35016 0.0 0.0 0.0 6.35016" Properties=species:S:1:pos:R:3 pbc="T T T"
O        0.15695652       1.27450232       1.67563494
H        0.26702467       1.37905917       2.64103815
H        0.73988032       1.95020526       1.40909155
3
Lattice="6.35016 0.0 0.0 0.0 6.35016 0.0 0.0 0.0 6.35016" Properties=species:S:1:pos:R:3 pbc="T T T"
O        0.16102844       1.26843652       1.67691342
H        0.23155509       1.35884870       2.65698315
H        0.71265090       1.95361828       1.41180916
3
Lattice="6.35016 0.0 0.0 0.0 6.35016 0.0 0.0 0.0 6.35016" Properties=species:S:1:pos:R:3 pbc="T T T"
O        0.16484799       1.26205810       1.67847816
H        0.19538712       1.33777093       2.67168847
H        0.69015355       1.96290805       1.41119656
3
Lattice="6.35016 0.0 0.0 0.0 6.35016 0.0 0.0 0.0 6.35016" Properties=species:S:1:pos:R:3 pbc="T T T"
O        0.16838891       1.25531550       1.68038753
H        0.15885382       1.31611498       2.68386642
H        0.67248525       1.97862197       1.40761044
3
Lattice="6.35016 0.0 0.0 0.0 6.35016 0.0 0.0 0.0 6.35016" Properties=species:S:1:pos:R:3 pbc="T T T"
O        0.17168381       1.24823704       1.68265225
H        0.12234631       1.29423398       2.69246219
H        0.65873467       1.99995324       1.40191593
3
Lattice="6.35016 0.0 0.0 0.0 6.35016 0.0 0.0 0.0 6.35016" Properties=species:S:1:pos:R:3 pbc="T T T"
O        0.17480282       1.24091544       1.68524280
H        0.08626762       1.27251764       2.69673661
H        0.64737208       2.02501992       1.39533063
3
Lattice="6.35016 0.0 0.0 0.0 6.35016 0.0 0.0 0.0 6.35016" Properties=species:S:1:pos:R:3 pbc="T T T"
O        0.17782607       1.23347413       1.68809993
H        0.05099750       1.25136450       2.69630797
H        0.63674064       2.05144872       1.38917516
3
Lattice="6.35016 0.0 0.0 0.0 6.35016 0.0 0.0 0.0 6.35016" Properties=species:S:1:pos:R:3 pbc="T T T"
O        0.18082449       1.22603428       1.69115112
H        0.01684088       1.23114997       2.69114853
H        0.62540948       2.07692156       1.38464680
3
Lattice="6.35016 0.0 0.0 0.0 6.35016 0.0 0.0 0.0 6.35016" Properties=species:S:1:pos:R:3 pbc="T T T"
O        0.18385212       1.21869781       1.69431648
H        6.33416179       1.21220224       2.68155744
H        0.61230522       2.09947129       1.38270740
3
Lattice="6.35016 0.0 0.0 0.0 6.35016 0.0 0.0 0.0 6.35016" Properties=species:S:1:pos:R:3 pbc="T T T"
O        0.18694852       1.21154144       1.69751480
H        6.30272069       1.19479302       2.66814641
H        0.59671577       2.11759262       1.38404950
3
Lattice="6.35016 0.0 0.0 0.0 6.35016 0.0 0.0 0.0 6.35016" Properties=species:S:1:pos:R:3 pbc="T T T"
O        0.19014278       1.20461799       1.70066543
H        6.27261445       1.17912076       2.65177481
H        0.57823408       2.13023394       1.38910868
3
Lattice="6.35016 0.0 0.0 0.0 6.35016 0.0 0.0 0.0 6.35016" Properties=species:S:1:pos:R:3 pbc="T T T"
O        0.19345801       1.19795851       1.70368938
H        6.24362330       1.16530135       2.63350946
H        0.55670773       2.13679118       1.39808050
3
Lattice="6.35016 0.0 0.0 0.0 6.35016 0.0 0.0 0.0 6.35016" Properties=species:S:1:pos:R:3 pbc="T T T"
O        0.19691357       1.19157323       1.70651641
H        6.21538992       1.15335899       2.61450400
H        0.53219275       2.13707643       1.41094008
3
Lattice="6.35016 0.0 0.0 0.0 6.35016 0.0 0.0 0.0 6.35016" Properties=species:S:1:pos:R:3 pbc="T T T"
O        0.20052300       1.18545168       1.70908943
H        6.18745144       1.14322978       2.59588743
H        0.50492396       2.13133233       1.42745310
3
Lattice="6.35016 0.0 0.0 0.0 6.35016 0.0 0.0 0.0 6.35016" Properties=species:S:1:pos:R:3 pbc="T T T"
O        0.20429106       1.17955702       1.71137942
H        6.15931521       1.13476838       2.57858458
H        0.47530630       2.12028871       1.44717702
3
Lattice="6.35016 0.0 0.0 0.0 6.35016 0.0 0.0 0.0 6.35016" Properties=species:S:1:pos:R:3 pbc="T T T"
O        0.20820930       1.17382244       1.71339001
H        6.13056061       1.12775489       2.56317204
H        0.44390470       2.10524213       1.46946214
3
Lattice="6.35016 0.0 0.0 0.0 6.35016 0.0 0.0 0.0 6.35016" Properties=species:S:1:pos:R:3 pbc="T T T"
O        0.21224934       1.16814305       1.71516742
H        6.10094334       1.12191198       2.54977168
H        0.41140743       2.08814839       1.49346359
3
Lattice="6.35016 0.0 0.0 0.0 6.35016 0.0 0.0 0.0 6.35016" Properties=species:S:1:pos:R:3 pbc="T T T"
O        0.21636551       1.16238002       1.71679141
H        6.07046365       1.11691574       2.53806306
H        0.37855317       2.07155751       1.51820673
3
Lattice="6.35016 0.0 0.0 0.0 6.35016 0.0 0.0 0.0 6.35016" Properties=species:S:1:pos:R:3 pbc="T T T"
O        0.22049959       1.15637385       1.71836574
H        6.03937650       1.11240503       2.52739092
H        0.34601711       2.05838023       1.54270273
3
Lattice="6.35016 0.0 0.0 0.0 6.35016 0.0 0.0 0.0 6.35016" Properties=species:S:1:pos:R:3 pbc="T T T"
O        0.22459354       1.14998210       1.71999291
H        6.00814057       1.10799528       2.51693818
H        0.31426561       2.05129117       1.56612040
3
Lattice="6.35016 0.0 0.0 0.0 6.35016 0.0 0.0 0.0 6.35016" Properties=species:S:1:pos:R:3 pbc="T T T"
O        0.22859973       1.14312735       1.72175743
H        5.97733449       1.10328924       2.50587976
H        0.28348613       2.05188967       1.58794590
3
Lattice="6.35016 0.0 0.0 0.0 6.35016 0.0 0.0 0.0 6.35016" Properties=species:S:1:pos:R:3 pbc="T T T"
O        0.23248107       1.13583991       1.72371404
H        5.94756525       1.09790431       2.49350120
H        0.25366762       2.06011497       1.60800961
3
Lattice="6.35016 0.0 0.0 0.0 6.35016 0.0 0.0 0.0 6.35016" Properties=species:S:1:pos:R:3 pbc="T T T"
O        0.23620392       1.12824525       1.72589138
H        5.91940998       1.09148265       2.47926535
H        0.22476931       2.07427983       1.62639314
3
Lattice="6.35016 0.0 0.0 0.0 6.35016 0.0 0.0 0.0 6.35016" Properties=species:S:1:pos:R:3 pbc="T T T"
O        0.23973334       1.12053202       1.72829981
H        5.89336003       1.08371170       2.46282370
H        0.19686836       2.09168504       1.64327662
3
Lattice="6.35016 0.0 0.0 0.0 6.35016 0.0 0.0 0.0 6.35016" Properties=species:S:1:pos:R:3 pbc="T T T"
O        0.24303097       1.11289818       1.73094039
H        5.86978335       1.07432883       2.44400716
H        0.17020905       2.10943952       1.65881883
3
Lattice="6.35016 0.0 0.0 0.0 6.35016 0.0 0.0 0.0 6.35016" Properties=species:S:1:pos:R:3 pbc="T T T"
O        0.24605956       1.10551574       1.73380762
H        5.84891253       1.06311439       2.42280938
H        0.14515647       2.12499602       1.67311247
3
Lattice="6.35016 0.0 0.0 0.0 6.35016 0.0 0.0 0.0 6.35016" Properties=species:S:1:pos:R:3 pbc="T T T"
O        0.24878822       1.09851989       1.73689087
H        5.83082639       1.04988427       2.39937049
H        0.12211967       2.13639411       1.68618993
3
Lattice="6.35016 0.0 0.0 0.0 6.35016 0.0 0.0 0.0 6.35016" Properties=species:S:1:pos:R:3 pbc="T T T"
O        0.25119741       1.09200507       1.74017340
H        5.81544744       1.03447732       2.37395537
H        0.10150185       2.14227080       1.69804618
3
Lattice="6.35016 0.0 0.0 0.0 6.35016 0.0 0.0 0.0 6.35016" Properties=species:S:1:pos:R:3 pbc="T T T"
O        0.25327924       1.08603180       1.74363341
H        5.80253477       1.01675777       2.34693493
H        0.08366272       2.14179435       1.70866429
3
Lattice="6.35016 0.0 0.0 0.0 6.35016 0.0 0.0 0.0 6.35016" Properties=species:S:1:pos:R:3 pbc="T T T"
O        0.25503963       1.08063079       1.74724468
H        5.79169334       0.99660033       2.31875578
H        0.06889993       2.13459885       1.71802379
3
Lattice="6.35016 0.0 0.0 0.0 6.35016 0.0 0.0 0.0 6.35016" Properties=species:S:1:pos:R:3 pbc="T T T"
O        0.25649776       1.07580683       1.75097839
H        5.78240382       0.97387768       2.28989170
H        0.05742932       2.12074369       1.72610932
3
Lattice="6.35016 0.0 0.0 0.0 6.35016 0.0 0.0 0.0 6.35016" Properties=species:S:1:pos:R:3 pbc="T T T"
O        0.25768270       1.07153813       1.75480652
H        5.77408453       0.94846771       2.26079717
H        0.04936570       2.10069694       1.73292075
3
Lattice="6.35016 0.0 0.0 0.0 6.35016 0.0 0.0 0.0 6.35016" Properties=species:S:1:pos:R:3 pbc="T T T"
O        0.25863014       1.06777464       1.75870386
H        5.76617636       0.92025992       2.23185365
H        0.04469960       2.07536882       1.73847537
3
Lattice="6.35016 0.0 0.0 0.0 6.35016 0.0 0.0 0.0 6.35016" Properties=species:S:1:pos:R:3 pbc="T T T"
O        0.25937800       1.06443090       1.76265328
H        5.75823930       0.88918617       2.20331000
H        0.04325469       2.04620037       1.74281049
3
Lattice="6.35016 0.0 0.0 0.0 6.35016 0.0 0.0 0.0 6.35016" Properties=species:S:1:pos:R:3 pbc="T T T"
O        0.25996412       1.06137825       1.76664544
H        5.75006499       0.85526520       2.17524845
H        0.04464982       2.01523096       1.74597979
3
Lattice="6.35016 0.0 0.0 0.0 6.35016 0.0 0.0 0.0 6.35016" Properties=species:S:1:pos:R:3 pbc="T T T"
O        0.26042044       1.05843972       1.77068204
H        5.74175168       0.81865463       2.14757915
H        0.04825969       1.98514060       1.74805147
3
Lattice="6.35016 0.0 0.0 0.0 6.35016 0.0 0.0 0.0 6.35016" Properties=species:S:1:pos:R:3 pbc="T T T"
O        0.26077523       1.05539462       1.77477231
H        5.73371434       0.77969258       2.12007731
H        0.05323657       1.95911561       1.74910001
3
Lattice="6.35016 0.0 0.0 0.0 6.35016 0.0 0.0 0.0 6.35016" Properties=species:S:1:pos:R:3 pbc="T T T"
O        0.26104727       1.05200561       1.77893039
H        5.72661899       0.73892557       2.09243970
H        0.05859953       1.94040842       1.74920002
3
Lattice="6.35016 0.0 0.0 0.0 6.35016 0.0 0.0 0.0 6.35016" Properties=species:S:1:pos:R:3 pbc="T T T"
O        0.26124488       1.04807181       1.78316995
H        5.72125730       0.69708723       2.06436812
H        0.06343727       1.93148988       1.74843216
3
Lattice="6.35016 0.0 0.0 0.0 6.35016 0.0 0.0 0.0 6.35016" Properties=species:S:1:pos:R:3 pbc="T T T"
O        0.26135627       1.04348915       1.78749892
H        5.71841782       0.65505329       2.03562539
H        0.06713770       1.93314581       1.74690908
3
Lattice="6.35016 0.0 0.0 0.0 6.35016 0.0 0.0 0.0 6.35016" Properties=species:S:1:pos:R:3 pbc="T T T"
O        0.26135366       1.03828056       1.79191533
H        5.71875216       0.61375141       2.00606844
H        0.06949761       1.94409031       1.74479974
3
Lattice="6.35016 0.0 0.0 0.0 6.35016 0.0 0.0 0.0 6.35016" Properties=species:S:1:pos:R:3 pbc="T T T"
O        0.26120202       1.03257253       1.79640756
H        5.72270920       0.57407898       1.97565283
H        0.07064140       1.96140002       1.74233245
3
Lattice="6.35016 0.0 0.0 0.0 6.35016 0.0 0.0 0.0 6.35016" Properties=species:S:1:pos:R:3 pbc="T T T"
O        0.26087194       1.02653969       1.80095681
H        5.73048148       0.53683275       1.94443309
H        0.07082492       1.98148068       1.73976280
3
Lattice="6.35016 0.0 0.0 0.0 6.35016 0.0 0.0 0.0 6.35016" Properties=species:S:1:pos:R:3 pbc="T T T"
O        0.26035300       1.02035825       1.80554036
H        5.74200581       0.50264304       1.91252588
H        0.07029583       2.00088442       1.73733100
3
Lattice="6.35016 0.0 0.0 0.0 6.35016 0.0 0.0 0.0 6.35016" Properties=species:S:1:pos:R:3 pbc="T T T"
O        0.25965188       1.01417739       1.81013705
H        5.75698819       0.47195532       1.88007784
H        0.06922271       2.01677449       1.73522961
3
Lattice="6.35016 0.0 0.0 0.0 6.35016 0.0 0.0 0.0 6.35016" Properties=species:S:1:pos:R:3 pbc="T T T"
O        0.25879556       1.00811425       1.81472898
H        5.77492498       0.44499737       1.84724541
H        0.06769099       2.02705693       1.73359006
3
Lattice="6.35016 0.0 0.0 0.0 6.35016 0.0 0.0 0.0 6.35016" Properties=species:S:1:pos:R:3 pbc="T T T"
O        0.25782469       1.00225560       1.81930319
H        5.79514287       0.42178658       1.81415892
H        0.06571869       2.03033132       1.73248050
3
Lattice="6.35016 0.0 0.0 0.0 6.35016 0.0 0.0 0.0 6.35016" Properties=species:S:1:pos:R:3 pbc="T T T"
O        0.25678968       0.99666104       1.82385466
H        5.81685077       0.40213468       1.78089850
H        0.06327719       2.02581058       1.73191197
3
Lattice="6.35016 0.0 0.0 0.0 6.35016 0.0 0.0 0.0 6.35016" Properties=species:S:1:pos:R:3 pbc="T T T"
O        0.25574888       0.99136799       1.82838499
H        5.83918587       0.38566820       1.74748218
H        0.06030366       2.01327060       1.73183818
3
Lattice="6.35016 0.0 0.0 0.0 6.35016 0.0 0.0 0.0 6.35016" Properties=species:S:1:pos:R:3 pbc="T T T"
O        0.25476182       0.98638769       1.83290358
H        5.86130144       0.37188842       1.71385834
H        0.05670261       1.99303620       1.73215721
3
Lattice="6.35016 0.0 0.0 0.0 6.35016 0.0 0.0 0.0 6.35016" Properties=species:S:1:pos:R:3 pbc="T T T"
O        0.25388378       0.98169644       1.83742864
H        5.88245421       0.36023562       1.67990251
H        0.05232024       1.96604421       1.73270682
3
Lattice="6.35016 0.0 0.0 0.0 6.35016 0.0 0.0 0.0 6.35016" Properties=species:S:1:pos:R:3 pbc="T T T"
O        0.25316386       0.97722593       1.84198437
H        5.90210427       0.35018002       1.64546305
H        0.04691625       1.93393253       1.73325109
3
Lattice="6.35016 0.0 0.0 0.0 6.35016 0.0 0.0 0.0 6.35016" Properties=species:S:1:pos:R:3 pbc="T T T"
O        0.25264200       0.97284794       1.84660011
H        5.91999216       0.34131119       1.61039962
H        0.04011015       1.89914553       1.73346115
3
Lattice="6.35016 0.0 0.0 0.0 6.35016 0.0 0.0 0.0 6.35016" Properties=species:S:1:pos:R:3 pbc="T T T"
O        0.25235034       0.96837514       1.85130742
H        5.93616468       0.33339883       1.57464251
H        0.03134375       1.86491912       1.73290551
3
Lattice="6.35016 0.0 0.0 0.0 6.35016 0.0 0.0 0.0 6.35016" Properties=species:S:1:pos:R:3 pbc="T T T"
O        0.25231491       0.96357487       1.85613608
H        5.95093960       0.32640984       1.53824161
H        0.01988121       1.83500593       1.73106155
3
Lattice="6.35016 0.0 0.0 0.0 6.35016 0.0 0.0 0.0 6.35016" Properties=species:S:1:pos:R:3 pbc="T T T"
O        0.25255247       0.95822181       1.86110794
H        5.96482569       0.32047327       1.50137373
H        0.00494735       1.81287257       1.72740272
3
Lattice="6.35016 0.0 0.0 0.0 6.35016 0.0 0.0 0.0 6.35016" Properties=species:S:1:pos:R:3 pbc="T T T"
O        0.25305750       0.95217341       1.86622623
H        5.97842055       0.31581035       1.46433254
H        6.33618736       1.80059276       1.72156819
3
Lattice="6.35016 0.0 0.0 0.0 6.35016 0.0 0.0 0.0 6.35016" Properties=species:S:1:pos:R:3 pbc="T T T"
O        0.25378840       0.94542243       1.87146791
H        5.99232017       0.31266581       1.42750111
H        6.31335644       1.79803066       1.71354667
3
Lattice="6.35016 0.0 0.0 0.0 6.35016 0.0 0.0 0.0 6.35016" Properties=species:S:1:pos:R:3 pbc="T T T"
O        0.25466351       0.93809663       1.87678147
H        6.00705812       0.31125462       1.39130120
H        6.28739032       1.80294054       1.70373986
3
Lattice="6.35016 0.0 0.0 0.0 6.35016 0.0 0.0 0.0 6.35016" Properties=species:S:1:pos:R:3 pbc="T T T"
O        0.25557508       0.93039566       1.88209585
H        6.02307850       0.31173145       1.35616513
H        6.25956563       1.81195624       1.69285442
3
Lattice="6.35016 0.0 0.0 0.0 6.35016 0.0 0.0 0.0 6.35016" Properties=species:S:1:pos:R:3 pbc="T T T"
O        0.25641127       0.92252921       1.88733372
H        6.04072026       0.31416763       1.32250286
H        6.23133301       1.82165979       1.68171656
3
Lattice="6.35016 0.0 0.0 0.0 6.35016 0.0 0.0 0.0 6.35016" Properties=species:S:1:pos:R:3 pbc="T T T"
O        0.25707270       0.91467444       1.89242293
H        6.06022008       0.31853996       1.29067345
H        6.20404669       1.82922982       1.67112163
3
Lattice="6.35016 0.0 0.0 0.0 6.35016 0.0 0.0 0.0 6.35016" Properties=species:S:1:pos:R:3 pbc="T T T"
O        0.25748032       0.90696681       1.89730182
H        6.08171581       0.32472667       1.26097229
H        6.17882964       1.83262646       1.66175851
3
Lattice="6.35016 0.0 0.0 0.0 6.35016 0.0 0.0 0.0 6.35016" Properties=species:S:1:pos:R:3 pbc="T T T"
O        0.25757665       0.89950143       1.90192207
H        6.10526290       0.33250924       1.23360640
H        6.15654400       1.83053960       1.65419001
3
Lattice="6.35016 0.0 0.0 0.0 6.35016 0.0 0.0 0.0 6.35016" Properties=species:S:1:pos:R:3 pbc="T T T"
O        0.25732493       0.89234258       1.90624920
H        6.13083830       0.34157485       1.20868018
H        6.13780601       1.82225773       1.64886115
3
Lattice="6.35016 0.0 0.0 0.0 6.35016 0.0 0.0 0.0 6.35016" Properties=species:S:1:pos:R:3 pbc="T T T"
O        0.25670642       0.88552899       1.91026224
H        6.15835697       0.35152720       1.18618639
H        6.12300735       1.80756009       1.64611095
3
Lattice="6.35016 0.0 0.0 0.0 6.35016 0.0 0.0 0.0 6.35016" Properties=species:S:1:pos:R:3 pbc="T T T"
O        0.25571853       0.87907678       1.91395391
H        6.18768792       0.36189809       1.16600298
H        6.11231482       1.78665327       1.64617477
3
Lattice="6.35016 0.0 0.0 0.0 6.35016 0.0 0.0 0.0 6.35016" Properties=species:S:1:pos:R:3 pbc="T T T"
O        0.25437515       0.87298132       1.91733086
H        6.21867911       0.37217157       1.14790775
H        6.10566049       1.76013722       1.64918792
3
Lattice="6.35016 0.0 0.0 0.0 6.35016 0.0 0.0 0.0 6.35016" Properties=species:S:1:pos:R:3 pbc="T T T"
O        0.25270652       0.86721227       1.92041120
H        6.25118412       0.38181169       1.13158943
H        6.10270671       1.72904284       1.65516025
3
Lattice="6.35016 0.0 0.0 0.0 6.35016 0.0 0.0 0.0 6.35016" Properties=species:S:1:pos:R:3 pbc="T T T"
O        0.25076128       0.86170706       1.92322571
H        6.28508642       0.39030452       1.11669424
H        6.10278425       1.69487796       1.66395122
3
Lattice="6.35016 0.0 0.0 0.0 6.35016 0.0 0.0 0.0 6.35016" Properties=species:S:1:pos:R:3 pbc="T T T"
O        0.24861149       0.85636492       1.92581721
H        6.32031260       0.39719825       1.10287058
H        6.10480893       1.65971160       1.67523006
3
Lattice="6.35016 0.0 0.0 0.0 6.35016 0.0 0.0 0.0 6.35016" Properties=species:S:1:pos:R:3 pbc="T T T"
O        0.24635414       0.85104254       1.92823643
H        0.00669002       0.40217398       1.08985212
H        6.10725101       1.62615716       1.68845274
3
Lattice="6.35016 0.0 0.0 0.0 6.35016 0.0 0.0 0.0 6.35016" Properties=species:S:1:pos:R:3 pbc="T T T"
O        0.24410866       0.84556051       1.93053856
H        0.04455437       0.40507766       1.07749255
H        6.10817020       1.59723600       1.70288361
3
Lattice="6.35016 0.0 0.0 0.0 6.35016 0.0 0.0 0.0 6.35016" Properties=species:S:1:pos:R:3 pbc="T T T"
O        0.24200244       0.83973189       1.93277083
H        0.08377576       0.40597468       1.06583314
H        6.10551926       1.57587876       1.71773441
3
Lattice="6.35016 0.0 0.0 0.0 6.35016 0.0 0.0 0.0 6.35016" Properties=species:S:1:pos:R:3 pbc="T T T"
O        0.24013695       0.83341125       1.93495840
H        0.12434255       0.40514478       1.05509464
H        6.09768037       1.56410931       1.73237991
3
Lattice="6.35016 0.0 0.0 0.0 6.35016 0.0 0.0 0.0 6.35016" Properties=species:S:1:pos:R:3 pbc="T T T"
O        0.23855462       0.82654953       1.93709402
H        0.16615098       0.40306104       1.04564002
H        6.08407096       1.56225188       1.74656128
3
Lattice="6.35016 0.0 0.0 0.0 6.35016 0.0 0.0 0.0 6.35016" Properties=species:S:1:pos:R:3 pbc="T T T"
O        0.23722528       0.81920722       1.93914328
H        0.20899551       0.40032133       1.03790927
H        6.06538441       1.56873178       1.76039517
3
Lattice="6.35016 0.0 0.0 0.0 6.35016 0.0 0.0 0.0 6.35016" Properties=species:S:1:pos:R:3 pbc="T T T"
O        0.23606282       0.81152689       1.94105893
H        0.25255882       0.39757602       1.03235389
H        6.04331030       1.58062690       1.77418562
3
Lattice="6.35016 0.0 0.0 0.0 6.35016 0.0 0.0 0.0 6.35016" Properties=species:S:1:pos:R:3 pbc="T T T"
O        0.23496144       0.80367746       1.94280123
H        0.29644820       0.39544917       1.02935128
H        6.01993041       1.59461389       1.78819051
3
Lattice="6.35016 0.0 0.0 0.0 6.35016 0.0 0.0 0.0 6.35016" Properties=species:S:1:pos:R:3 pbc="T T T"
O        0.23382470       0.79581272       1.94434774
H        0.34022989       0.39449150       1.02916389
H        5.99722477       1.60767826       1.80250358
3
Lattice="6.35016 0.0 0.0 0.0 6.35016 0.0 0.0 0.0 6.35016" Properties=species:S:1:pos:R:3 pbc="T T T"
O        0.23257759       0.78805346       1.94569556
H        0.38346292       0.39514956       1.03191903
H        5.97682184       1.61744290       1.81704805
3
Lattice="6.35016 0.0 0.0 0.0 6.35016 0.0 0.0 0.0 6.35016" Properties=species:S:1:pos:R:3 pbc="T T T"
O        0.23116951       0.78048407       1.94685879
H        0.42574565       0.39775586       1.03759519
H        5.95993994       1.62222311       1.83162339
3
Lattice="6.35016 0.0 0.0 0.0 6.35016 0.0 0.0 0.0 6.35016" Properties=species:S:1:pos:R:3 pbc="T T T"
O        0.22956984       0.77315808       1.94786433
H        0.46672431       0.40253594       1.04603735
H        5.94742250       1.62093613       1.84595817
3
Lattice="6.35016 0.0 0.0 0.0 6.35016 0.0 0.0 0.0 6.35016" Properties=species:S:1:pos:R:3 pbc="T T T"
O        0.22776424       0.76610299       1.94874828
H        0.50612414       0.40961129       1.05696305
H        5.93978161       1.61301983       1.85975110
3
Lattice="6.35016 0.0 0.0 0.0 6.35016 0.0 0.0 0.0 6.35016" Properties=species:S:1:pos:R:3 pbc="T T T"
O        0.22575136       0.75932305       1.94955430
H        0.54375709       0.41901715       1.06999148
H        5.93722053       1.59836880       1.87269654
3
Lattice="6.35016 0.0 0.0 0.0 6.35016 0.0 0.0 0.0 6.35016" Properties=species:S:1:pos:R:3 pbc="T T T"
O        0.22354373       0.75279972       1.95032883
H        0.57953300       0.43071878       1.08466429
H        5.93963467       1.57731669       1.88450066
3
Lattice="6.35016 0.0 0.0 0.0 6.35016 0.0 0.0 0.0 6.35016" Properties=species:S:1:pos:R:3 pbc="T T T"
O        0.22116915       0.74648779       1.95111974
H        0.61346305       0.44462284       1.10048647
H        5.94656275       1.55068139       1.89489517
3
Lattice="6.35016 0.0 0.0 0.0 6.35016 0.0 0.0 0.0 6.35016" Properties=species:S:1:pos:R:3 pbc="T T T"
O        0.21867868       0.74030813       1.95197213
H        0.64563880       0.46060371       1.11696749
H        5.95710072       1.51985060       1.90364169
3
Lattice="6.35016 0.0 0.0 0.0 6.35016 0.0 0.0 0.0 6.35016" Properties=species:S:1:pos:R:3 pbc="T T T"
O        0.21615227       0.73414155       1.95292687
H        0.67622130       0.47851199       1.13366257
H        5.96980072       1.48687923       1.91053968
3
Lattice="6.35016 0.0 0.0 0.0 6.35016 0.0 0.0 0.0 6.35016" Properties=species:S:1:pos:R:3 pbc="T T T"
O        0.21370765       0.72782162       1.95401764
H        0.70540600       0.49819602       1.15020454
H        5.98258728       1.45457743       1.91541807
3
Lattice="6.35016 0.0 0.0 0.0 6.35016 0.0 0.0 0.0 6.35016" Properties=species:S:1:pos:R:3 pbc="T T T"
O        0.21149405       0.72114532       1.95526913
H        0.73338881       0.51951599       1.16633674
H        5.99287187       1.42633370       1.91814152
3
Lattice="6.35016 0.0 0.0 0.0 6.35016 0.0 0.0 0.0 6.35016" Properties=species:S:1:pos:R:3 pbc="T T T"
O        0.20966698       0.71390728       1.95669684
H        0.76034181       0.54235294       1.18191000
H        5.99800045       1.40553635       1.91861181
3
Lattice="6.35016 0.0 0.0 0.0 6.35016 0.0 0.0 0.0 6.35016" Properties=species:S:1:pos:R:3 pbc="T T T"
O        0.20833586       0.70596589       1.95830609
H        0.78638921       0.56662141       1.19688082
H        5.99610188       1.39454391       1.91678551
3
Lattice="6.35016 0.0 0.0 0.0 6.35016 0.0 0.0 0.0 6.35016" Properties=species:S:1:pos:R:3 pbc="T T T"
O        0.20751377       0.69730408       1.96008998
H        0.81158620       0.59226514       1.21129353
H        5.98690900       1.39370911       1.91271429
3
Lattice="6.35016 0.0 0.0 0.0 6.35016 0.0 0.0 0.0 6.35016" Properties=species:S:1:pos:R:3 pbc="T T T"
O        0.20710983       0.68803749       1.96202913
H        0.83589575       0.61923630       1.22529214
H        5.97191374       1.40122370       1.90658404
3
Lattice="6.35016 0.0 0.0 0.0 6.35016 0.0 0.0 0.0 6.35016" Properties=species:S:1:pos:R:3 pbc="T T T"
O        0.20697013       0.67836581       1.96408868
H        0.85918617       0.64748270       1.23911733
H        5.95369862       1.41394669       1.89870895
3
Lattice="6.35016 0.0 0.0 0.0 6.35016 0.0 0.0 0.0 6.35016" Properties=species:S:1:pos:R:3 pbc="T T T"
O        0.20693793       0.66850414       1.96622341
H        0.88123158       0.67693499       1.25309987
H        5.93500368       1.42852780       1.88948490
3
Lattice="6.35016 0.0 0.0 0.0 6.35016 0.0 0.0 0.0 6.35016" Properties=species:S:1:pos:R:3 pbc="T T T"
O        0.20688713       0.65864031       1.96838107
H        0.90172621       0.70746726       1.26764358
H        5.91814871       1.44208635       1.87934503
3
Lattice="6.35016 0.0 0.0 0.0 6.35016 0.0 0.0 0.0 6.35016" Properties=species:S:1:pos:R:3 pbc="T T T"
O        0.20673378       0.64892323       1.97050716
H        0.92031688       0.73887445       1.28318299
H        5.90482499       1.45245013       1.86872350
3
Lattice="6.35016 0.0 0.0 0.0 6.35016 0.0 0.0 0.0 6.35016" Properties=species:S:1:pos:R:3 pbc="T T T"
O        0.20643265       0.63946213       1.97254938
H        0.93665216       0.77087628       1.30014103
H        5.89611657       1.45812615       1.85803142
3
Lattice="6.35016 0.0 0.0 0.0 6.35016 0.0 0.0 0.0 6.35016" Properties=species:S:1:pos:R:3 pbc="T T T"
O        0.20596655       0.63033803       1.97446065
H        0.95042445       0.80311921       1.31889153
H        5.89260481       1.45817022       1.84764560
3
Lattice="6.35016 0.0 0.0 0.0 6.35016 0.0 0.0 0.0 6.35016" Properties=species:S:1:pos:R:3 pbc="T T T"
O        0.20533954       0.62160751       1.97620097
H        0.96140933       0.83518746       1.33973002
H        5.89445639       1.45208544       1.83790712
3
Lattice="6.35016 0.0 0.0 0.0 6.35016 0.0 0.0 0.0 6.35016" Properties=species:S:1:pos:R:3 pbc="T T T"
O        0.20457034       0.61330455       1.97774050
H        0.96950541       0.86663548       1.36284803
H        5.90147344       1.43976657       1.82910313
3
Lattice="6.35016 0.0 0.0 0.0 6.35016 0.0 0.0 0.0 6.35016" Properties=species:S:1:pos:R:3 pbc="T T T"
O        0.20369046       0.60544223       1.97906038
H        0.97474588       0.89700500       1.38833097
H        5.91311532       1.42146941       1.82145919
3
Lattice="6.35016 0.0 0.0 0.0 6.35016 0.0 0.0 0.0 6.35016" Properties=species:S:1:pos:R:3 pbc="T T T"
O        0.20274467       0.59800759       1.98015363
H        0.97733147       0.92585460       1.41614378
H        5.92846334       1.39785780       1.81511278
3
Lattice="6.35016 0.0 0.0 0.0 6.35016 0.0 0.0 0.0 6.35016" Properties=species:S:1:pos:R:3 pbc="T T T"
O        0.20179386       0.59095383       1.98102760
H        0.97763234       0.95278442       1.44615108
H        5.94617273       1.37006747       1.81008066
3
Lattice="6.35016 0.0 0.0 0.0 6.35016 0.0 0.0 0.0 6.35016" Properties=species:S:1:pos:R:3 pbc="T T T"
O        0.20091951       0.58419567       1.98170561
H        0.97618698       0.97746914       1.47813328
H        5.96440283       1.33979975       1.80621201
3
Lattice="6.35016 0.0 0.0 0.0 6.35016 0.0 0.0 0.0 6.35016" Properties=species:S:1:pos:R:3 pbc="T T T"
O        0.20022512       0.57760509       1.98222734
H        0.97367480       0.99968035       1.51180869
H        5.98082199       1.30932958       1.80315194
3
Lattice="6.35016 0.0 0.0 0.0 6.35016 0.0 0.0 0.0 6.35016" Properties=species:S:1:pos:R:3 pbc="T T T"
O        0.19983090       0.57101991       1.98264753
H        0.97087025       1.01930222       1.54686227
H        5.99273115       1.28137034       1.80033526
3
Lattice="6.35016 0.0 0.0 0.0 6.35016 0.0 0.0 0.0 6.35016" Properties=species:S:1:pos:R:3 pbc="T T T"
O        0.19985344       0.56427249       1.98302784
H        0.96856095       1.03634275       1.58299335
H        5.99747770       1.25858990       1.79708131
3
Lattice="6.35016 0.0 0.0 0.0 6.35016 0.0 0.0 0.0 6.35016" Properties=species:S:1:pos:R:3 pbc="T T T"
O        0.20036869       0.55724172       1.98342167
H        0.96745208       1.05092938       1.61994360
H        5.99313876       1.24280340       1.79279946
3
Lattice="6.35016 0.0 0.0 0.0 6.35016 0.0 0.0 0.0 6.35016" Properties=species:S:1:pos:R:3 pbc="T T T"
O        0.20137602       0.54990093       1.98385660
H        0.96805782       1.06327803       1.65751953
H        5.97921318       1.23422332       1.78723583
3
Lattice="6.35016 0.0 0.0 0.0 6.35016 0.0 0.0 0.0 6.35016" Properties=species:S:1:pos:R:3 pbc="T T T"
O        0.20278906       0.54232754       1.98432803
H        0.97062697       1.07364600       1.69560537
H        5.95682760       1.23135216       1.78058023
3
Lattice="6.35016 0.0 0.0 0.0 6.35016 0.0 0.0 0.0 6.35016" Properties=species:S:1:pos:R:3 pbc="T T T"
O        0.20446499       0.53466791       1.98480595
H        0.97510187       1.08226818       1.73415129
H        5.92833068       1.23160680       1.77336048
3
Lattice="6.35016 0.0 0.0 0.0 6.35016 0.0 0.0 0.0 6.35016" Properties=species:S:1:pos:R:3 pbc="T T T"
O        0.20624774       0.52708411       1.98525014
H        0.98114995       1.08931623       1.77315207
H        5.89654826       1.23221877       1.76622417
3
Lattice="6.35016 0.0 0.0 0.0 6.35016 0.0 0.0 0.0 6.35016" Properties=species:S:1:pos:R:3 pbc="T T T"
O        0.20800184       0.51971748       1.98562264
H        0.98821831       1.09487751       1.81261812
H        5.86419731       1.23083437       1.75976910
3
Lattice="6.35016 0.0 0.0 0.0 6.35016 0.0 0.0 0.0 6.35016" Properties=species:S:1:pos:R:3 pbc="T T T"
O        0.20962640       0.51267521       1.98589411
H        0.99561117       1.09895259       1.85253897
H        5.83358509       1.22573963       1.75446888
3
Lattice="6.35016 0.0 0.0 0.0 6.35016 0.0 0.0 0.0 6.35016" Properties=species:S:1:pos:R:3 pbc="T T T"
O        0.21105570       0.50602901       1.98604607
H        1.00257787       1.10147989       1.89288078
H        5.80651804       1.21584907       1.75065916
3
Lattice="6.35016 0.0 0.0 0.0 6.35016 0.0 0.0 0.0 6.35016" Properties=species:S:1:pos:R:3 pbc="T T T"
O        0.21225295       0.49982020       1.98607045
H        1.00836959       1.10236650       1.93355552
H        5.78433039       1.20058811       1.74855580
3
Lattice="6.35016 0.0 0.0 0.0 6.35016 0.0 0.0 0.0 6.35016" Properties=species:S:1:pos:R:3 pbc="T T T"
O        0.21320395       0.49406499       1.98596809
H        1.01230599       1.10152568       1.97443315
H        5.76793250       1.17979197       1.74827608
3
Lattice="6.35016 0.0 0.0 0.0 6.35016 0.0 0.0 0.0 6.35016" Properties=species:S:1:pos:R:3 pbc="T T T"
O        0.21391162       0.48875715       1.98574723
H        1.01381663       1.09890147       2.01535091
H        5.75784209       1.15363103       1.74984996
3
Lattice="6.35016 0.0 0.0 0.0 6.35016 0.0 0.0 0.0 6.35016" Properties=species:S:1:pos:R:3 pbc="T T T"
O        0.21439588       0.48386784       1.98542331
H        1.01246824       1.09449180       2.05612066
H        5.75417685       1.12257341       1.75321891
3
Lattice="6.35016 0.0 0.0 0.0 6.35016 0.0 0.0 0.0 6.35016" Properties=species:S:1:pos:R:3 pbc="T T T"
O        0.21469440       0.47934507       1.98501817
H        1.00797404       1.08836116       2.09654870
H        5.75662198       1.08738013       1.75823109
3
Lattice="6.35016 0.0 0.0 0.0 6.35016 0.0 0.0 0.0 6.35016" Properties=species:S:1:pos:R:3 pbc="T T T"
O        0.21486789       0.47511186       1.98456019
H        1.00020913       1.08065296       2.13645355
H        5.76432447       1.04914950       1.76461110
3
Lattice="6.35016 0.0 0.0 0.0 6.35016 0.0 0.0 0.0 6.35016" Properties=species:S:1:pos:R:3 pbc="T T T"
O        0.21501019       0.47106217       1.98408508
H        0.98920779       1.07158385       2.17569677
H        5.77575342       1.00935888       1.77192921
3
Lattice="6.35016 0.0 0.0 0.0 6.35016 0.0 0.0 0.0 6.35016" Properties=species:S:1:pos:R:3 pbc="T T T"
O        0.21525461       0.46706094       1.98363587
H        0.97515978       1.06144880       2.21419646
H        5.78858512       0.96987727       1.77958008
3
Lattice="6.35016 0.0 0.0 0.0 6.35016 0.0 0.0 0.0 6.35016" Properties=species:S:1:pos:R:3 pbc="T T T"
O        0.21577564       0.46294768       1.98326095
H        0.95840139       1.05062457       2.25194321
H        5.79969676       0.93290004       1.78679151
3
Lattice="6.35016 0.0 0.0 0.0 6.35016 0.0 0.0 0.0 6.35016" Properties=species:S:1:pos:R:3 pbc="T T T"
O        0.21676620       0.45855604       1.98300682
H        0.93938628       1.03955866       2.28901957
H        5.80555466       0.90062922       1.79273932
3
Lattice="6.35016 0.0 0.0 0.0 6.35016 0.0 0.0 0.0 6.35016" Properties=species:S:1:pos:R:3 pbc="T T T"
O        0.21838410       0.45374884       1.98290255
H        0.91865168       1.02876751       2.32561135
H        5.80309429       0.87474286       1.79677663
3
Lattice="6.35016 0.0 0.0 0.0 6.35016 0.0 0.0 0.0 6.35016" Properties=species:S:1:pos:R:3 pbc="T T T"
O        0.22068216       0.44845636       1.98294332
H        0.89675023       1.01879357       2.36199097
H        5.79092141       0.85580459       1.79871502
3
Lattice="6.35016 0.0 0.0 0.0 6.35016 0.0 0.0 0.0 6.35016" Properties=species:S:1:pos:R:3 pbc="T T T"
O        0.22357078       0.44269283       1.98308435
H        0.87416811       1.01014846       2.39848128
H        5.76996436       0.84308496       1.79894108
3
Lattice="6.35016 0.0 0.0 0.0 6.35016 0.0 0.0 0.0 6.35016" Properties=species:S:1:pos:R:3 pbc="T T T"
O        0.22685381       0.43653445       1.98325600
H        0.85122625       1.00322120       2.43538739
H        5.74304749       0.83495987       1.79826282
3
Lattice="6.35016 0.0 0.0 0.0 6.35016 0.0 0.0 0.0 6.35016" Properties=species:S:1:pos:R:3 pbc="T T T"
O        0.23030074       0.43008802       1.98338757
H        0.82799666       0.99818400       2.47290033
H        5.71377541       0.82955106       1.79761434
3
Lattice="6.35016 0.0 0.0 0.0 6.35016 0.0 0.0 0.0 6.35016" Properties=species:S:1:pos:R:3 pbc="T T T"
O        0.23371230       0.42346486       1.98342860
H        0.80428834       0.99492364       2.51101094
H        5.68553530       0.82518532       1.79781418
3
Lattice="6.35016 0.0 0.0 0.0 6.35016 0.0 0.0 0.0 6.35016" Properties=species:S:1:pos:R:3 pbc="T T T"
O        0.23694536       0.41677103       1.98335786
H        0.77970528       0.99303770       2.54945449
H        5.66100654       0.82056977       1.79945824
3
Lattice="6.35016 0.0 0.0 0.0 6.35016 0.0 0.0 0.0 6.35016" Properties=species:S:1:pos:R:3 pbc="T T T"
O        0.23991425       0.41010311       1.98318450
H        0.75374989       0.99189283       2.58773535
H        5.64206985       0.81478871       1.80290847
3
Lattice="6.35016 0.0 0.0 0.0 6.35016 0.0 0.0 0.0 6.35016" Properties=species:S:1:pos:R:3 pbc="T T T"
O        0.24257548       0.40354816       1.98294116
H        0.72594661       0.99071862       2.62517069
H        5.62990561       0.80722218       1.80832541
3
Lattice="6.35016 0.0 0.0 0.0 6.35016 0.0 0.0 0.0 6.35016" Properties=species:S:1:pos:R:3 pbc="T T T"
O        0.24491462       0.39718085       1.98267648
H        0.69594166       0.98871191       2.66099473
H        5.62510229       0.79748186       1.81569845
3
Lattice="6.35016 0.0 0.0 0.0 6.35016 0.0 0.0 0.0 6.35016" Properties=species:S:1:pos:R:3 pbc="T T T"
O        0.24693658       0.39106044       1.98244635
H        0.66357115       0.98512299       2.69445525
H        5.62774364       0.78536740       1.82487317
3
Lattice="6.35016 0.0 0.0 0.0 6.35016 0.0 0.0 0.0 6.35016" Properties=species:S:1:pos:R:3 pbc="T T T"
O        0.24866382       0.38522985       1.98231059
H        0.62887832       0.97931399       2.72487931
H        5.63743309       0.77084941       1.83556703
3
Lattice="6.35016 0.0 0.0 0.0 6.35016 0.0 0.0 0.0 6.35016" Properties=species:S:1:pos:R:3 pbc="T T T"
O        0.25013629       0.37971112       1.98232672
H        0.59211133       0.97079652       2.75174404
H        5.65327757       0.75406639       1.84737585
3
Lattice="6.35016 0.0 0.0 0.0 6.35016 0.0 0.0 0.0 6.35016" Properties=species:S:1:pos:R:3 pbc="T T T"
O        0.25141865       0.37450399       1.98254942
H        0.55370061       0.95924114       2.77471657
H        5.67380586       0.73535227       1.85976634
3
Lattice="6.35016 0.0 0.0 0.0 6.35016 0.0 0.0 0.0 6.35016" Properties=species:S:1:pos:R:3 pbc="T T T"
O        0.25260886       0.36958350       1.98302733
H        0.51423754       0.94449206       2.79368844
H        5.69687840       0.71526329       1.87207899
3
Lattice="6.35016 0.0 0.0 0.0 6.35016 0.0 0.0 0.0 6.35016" Properties=species:S:1:pos:R:3 pbc="T T T"
O        0.25383888       0.36489937       1.98379894
H        0.47443639       0.92657407       2.80880779
H        5.71965433       0.69457796       1.88354223
3
Lattice="6.35016 0.0 0.0 0.0 6.35016 0.0 0.0 0.0 6.35016" Properties=species:S:1:pos:R:3 pbc="T T T"
O        0.25527224       0.36037990       1.98489123
H        0.43508598       0.90568541       2.82048865
H        5.73874570       0.67423319       1.89331113
3
Lattice="6.35016 0.0 0.0 0.0 6.35016 0.0 0.0 0.0 6.35016" Properties=species:S:1:pos:R:3 pbc="T T T"
O        0.25707550       0.35594476       1.98631379
H        0.39698540       0.88219236       2.82942123
H        5.75067950       0.65514639       1.90054650
3
Lattice="6.35016 0.0 0.0 0.0 6.35016 0.0 0.0 0.0 6.35016" Properties=species:S:1:pos:R:3 pbc="T T T"
O        0.25936790       0.35152574       1.98805272
H        0.36088416       0.85660680       2.83653989
H        5.75279054       0.63791263       1.90453357
3
Lattice="6.35016 0.0 0.0 0.0 6.35016 0.0 0.0 0.0 6.35016" Properties=species:S:1:pos:R:3 pbc="T T T"
O        0.26216756       0.34708482       1.99006851
H        0.32740041       0.82952413       2.84294574
H        5.74417611       0.62253298       1.90480111
3
Lattice="6.35016 0.0 0.0 0.0 6.35016 0.0 0.0 0.0 6.35016" Properties=species:S:1:pos:R:3 pbc="T T T"
O        0.26536988       0.34262180       1.99229926
H        0.29695006       0.80155707       2.84978835
H        5.72608088       0.60839600       1.90118799
3
Lattice="6.35016 0.0 0.0 0.0 6.35016 0.0 0.0 0.0 6.35016" Properties=species:S:1:pos:R:3 pbc="T T T"
O        0.26878360       0.33816247       1.99467155
H        0.26973429       0.77324279       2.85810395
H        5.70137323       0.59454287       1.89383000
3
Lattice="6.35016 0.0 0.0 0.0 6.35016 0.0 0.0 0.0 6.35016" Properties=species:S:1:pos:R:3 pbc="T T T"
O        0.27218958       0.33374250       1.99711484
H        0.24575081       0.74497169       2.86865576
H        5.67357331       0.58001364       1.88309639
3
Lattice="6.35016 0.0 0.0 0.0 6.35016 0.0 0.0 0.0 6.35016" Properties=species:S:1:pos:R:3 pbc="T T T"
O        0.27538542       0.32939683       1.99957426
H        0.22484278       0.71692741       2.88179805
H        5.64605959       0.56406458       1.86950311
3
Lattice="6.35016 0.0 0.0 0.0 6.35016 0.0 0.0 0.0 6.35016" Properties=species:S:1:pos:R:3 pbc="T T T"
O        0.27821130       0.32515569       2.00201996
H        0.20677023       0.68908710       2.89741570
H        5.62164215       0.54623600       1.85364060
3
Lattice="6.35016 0.0 0.0 0.0 6.35016 0.0 0.0 0.0 6.35016" Properties=species:S:1:pos:R:3 pbc="T T T"
O        0.28055077       0.32104288       2.00444705
H        0.19127901       0.66127753       2.91497230
H        5.60244219       0.52632247       1.83611600
3
Lattice="6.35016 0.0 0.0 0.0 6.35016 0.0 0.0 0.0 6.35016" Properties=species:S:1:pos:R:3 pbc="T T T"
O        0.28232589       0.31707517       2.00687205
H        0.17814161       0.63324246       2.93361561
H        5.58993377       0.50431199       1.81751587
3
Lattice="6.35016 0.0 0.0 0.0 6.35016 0.0 0.0 0.0 6.35016" Properties=species:S:1:pos:R:3 pbc="T T T"
O        0.28349127       0.31326152       2.00932518
H        0.16716212       0.60471462       2.95232305
H        5.58504529       0.48032655       1.79838589
3
Lattice="6.35016 0.0 0.0 0.0 6.35016 0.0 0.0 0.0 6.35016" Properties=species:S:1:pos:R:3 pbc="T T T"
O        0.28402792       0.30960167       2.01184067
H        0.15816934       0.57547874       2.97004927
H        5.58824145       0.45457862       1.77921672
3
Lattice="6.35016 0.0 0.0 0.0 6.35016 0.0 0.0 0.0 6.35016" Properties=species:S:1:pos:R:3 pbc="T T T"
O        0.28394398       0.30608705       2.01445434
H        0.15100909       0.54539714       2.98583133
H        5.59954759       0.42734189       1.76042184
3
Lattice="6.35016 0.0 0.0 0.0 6.35016 0.0 0.0 0.0 6.35016" Properties=species:S:1:pos:R:3 pbc="T T T"
O        0.28327492       0.30270190       2.01719481
H        0.14552795       0.51441890       2.99888192
H        5.61855038       0.39893051       1.74231124
3
Lattice="6.35016 0.0 0.0 0.0 6.35016 0.0 0.0 0.0 6.35016" Properties=species:S:1:pos:R:3 pbc="T T T"
O        0.28208770       0.29942325       2.02008845
H        0.14155427       0.48257431       3.00862732
H        5.64434607       0.36967806       1.72505341
3
Lattice="6.35016 0.0 0.0 0.0 6.35016 0.0 0.0 0.0 6.35016" Properties=species:S:1:pos:R:3 pbc="T T T"
O        0.28048682       0.29622474       2.02315717
H        0.13889241       0.44996503       3.01474906
H        5.67545944       0.33991213       1.70861228
3
Lattice="6.35016 0.0 0.0 0.0 6.35016 0.0 0.0 0.0 6.35016" Properties=species:S:1:pos:R:3 pbc="T T T"
O        0.27861879       0.29307932       2.02642426
H        0.13731281       0.41673579       3.01718734
H        5.70977316       0.30991562       1.69267928
3
Lattice="6.35016 0.0 0.0 0.0 6.35016 0.0 0.0 0.0 6.35016" Properties=species:S:1:pos:R:3 pbc="T T T"
O        0.27667260       0.28996539       2.02991736
H        0.13654768       0.38305626       3.01615702
H        5.74453629       0.27987041       1.67660328
3
Lattice="6.35016 0.0 0.0 0.0 6.35016 0.0 0.0 0.0 6.35016" Properties=species:S:1:pos:R:3 pbc="T T T"
O        0.27486572       0.28687165       2.03366713
H        0.13628459       0.34909827       3.01216303
H        5.77658262       0.24978729       1.65939200
3
Lattice="6.35016 0.0 0.0 0.0 6.35016 0.0 0.0 0.0 6.35016" Properties=species:S:1:pos:R:3 pbc="T T T"
O        0.27340919       0.28380211       2.03769713
H        0.13616826       0.31500248       3.00599772
H        5.80289419       0.21946534       1.63988500
3
Lattice="6.35016 0.0 0.0 0.0 6.35016 0.0 0.0 0.0 6.35016" Properties=species:S:1:pos:R:3 pbc="T T T"
O        0.27245311       0.28077366       2.04199847
H        0.13579919       0.28084605       2.99871942
H        5.82146378       0.18855168       1.61715778
3
Lattice="6.35016 0.0 0.0 0.0 6.35016 0.0 0.0 0.0 6.35016" Properties=species:S:1:pos:R:3 pbc="T T T"
O        0.27204270       0.27780788       2.04650620
H        0.13474957       0.24661831       2.99156933
H        5.83200339       0.15672246       1.59100941
3
Lattice="6.35016 0.0 0.0 0.0 6.35016 0.0 0.0 0.0 6.35016" Properties=species:S:1:pos:R:3 pbc="T T T"
O        0.27211198       0.27491849       2.05109209
H        0.13259185       0.21219841       2.98581812
H        5.83598621       0.12387441       1.56221416
3
Lattice="6.35016 0.0 0.0 0.0 6.35016 0.0 0.0 0.0 6.35016" Properties=species:S:1:pos:R:3 pbc="T T T"
O        0.27252404       0.27210601       2.05559302
H        0.12894482       0.17736924       2.98252346
H        5.83598310       0.09020383       1.53232822
3
Lattice="6.35016 0.0 0.0 0.0 6.35016 0.0 0.0 0.0 6.35016" Properties=species:S:1:pos:R:3 pbc="T T T"
O        0.27312203       0.26935944       2.05985449
H        0.12352534       0.14187540       2.98226996
H        5.83477759       0.05615662       1.50322708
3
Lattice="6.35016 0.0 0.0 0.0 6.35016 0.0 0.0 0.0 6.35016" Properties=species:S:1:pos:R:3 pbc="T T T"
O        0.27376416       0.26665770       2.06376930
H        0.11619980       0.10549578       2.98499222
H        5.83477346       0.02228557       1.47669021
3
Lattice="6.35016 0.0 0.0 0.0 6.35016 0.0 0.0 0.0 6.35016" Properties=species:S:1:pos:R:3 pbc="T T T"
O        0.27433593       0.26397171       2.06729281
H        0.10700902       0.06813899       2.98995645
H        5.83776102       6.33930294       1.45416156
3
Lattice="6.35016 0.0 0.0 0.0 6.35016 0.0 0.0 0.0 6.35016" Properties=species:S:1:pos:R:3 pbc="T T T"
O        0.27475040       0.26126482       2.07043912
H        0.09616428       0.02989884       2.99592281
H        5.84492527       6.30738596       1.43666883
3
Lattice="6.35016 0.0 0.0 0.0 6.35016 0.0 0.0 0.0 6.35016" Properties=species:S:1:pos:R:3 pbc="T T T"
O        0.27494345       0.25849425       2.07326139
H        0.08401262       6.34120685       3.00141703
H        5.85694726       6.27710331       1.42483652
3
Lattice="6.35016 0.0 0.0 0.0 6.35016 0.0 0.0 0.0 6.35016" Properties=species:S:1:pos:R:3 pbc="T T T"
O        0.27487099       0.25561483       2.07583390
H        0.07098888       6.30216689       3.00498487
H        5.87409778       6.24876630       1.41892026
3
Lattice="6.35016 0.0 0.0 0.0 6.35016 0.0 0.0 0.0 6.35016" Properties=species:S:1:pos:R:3 pbc="T T T"
O        0.27450757       0.25258212       2.07824042
H        0.05756820       6.26344742       3.00538760
H        5.89630225       6.22257760       1.41883016
3
Lattice="6.35016 0.0 0.0 0.0 6.35016 0.0 0.0 0.0 6.35016" Properties=species:S:1:pos:R:3 pbc="T T T"
O        0.27384646       0.24935815       2.08056318
H        0.04423242       6.22558999       3.00171295
H        5.92319270       6.19860759       1.42414137
3
Lattice="6.35016 0.0 0.0 0.0 6.35016 0.0 0.0 0.0 6.35016" Properties=species:S:1:pos:R:3 pbc="T T T"
O        0.27290181       0.24591611       2.08288728
H        0.03143532       6.18911753       2.99341272
H        5.95408064       6.17674850       1.43405155
3
Lattice="6.35016 0.0 0.0 0.0 6.35016 0.0 0.0 0.0 6.35016" Properties=species:S:1:pos:R:3 pbc="T T T"
O        0.27171052       0.24224743       2.08530002
H        0.01959113       6.15450243       2.98031043
H        5.98796916       6.15666929       1.44735253
3
Lattice="6.35016 0.0 0.0 0.0 6.35016 0.0 0.0 0.0 6.35016" Properties=species:S:1:pos:R:3 pbc="T T T"
O        0.27033247       0.23836710       2.08789152
H        0.00904587       6.12212201       2.96262238
H        6.02354454       6.13775109       1.46238311
3
Lattice="6.35016 0.0 0.0 0.0 6.35016 0.0 0.0 0.0 6.35016" Properties=species:S:1:pos:R:3 pbc="T T T"
O        0.26884869       0.23431671       2.09075595
H        0.00006407       6.09223339       2.94092992
H        6.05925688       6.11906371       1.47705598
3
Lattice="6.35016 0.0 0.0 0.0 6.35016 0.0 0.0 0.0 6.35016" Properties=species:S:1:pos:R:3 pbc="T T T"
O        0.26735069       0.23016498       2.09398304
H        6.34296082       6.06492440       2.91616836
H        6.09348666       6.09941828       1.48900190
3
Lattice="6.35016 0.0 0.0 0.0 6.35016 0.0 0.0 0.0 6.35016" Properties=species:S:1:pos:R:3 pbc="T T T"
O        0.26592140       0.22599426       2.09763775
H        6.33743815       6.04008804       2.88959122
H        6.12488947       6.07759850       1.49593170
3
Lattice="6.35016 0.0 0.0 0.0 6.35016 0.0 0.0 0.0 6.35016" Properties=species:S:1:pos:R:3 pbc="T T T"
O        0.26461142       0.22187777       2.10173087
H        6.33352963       6.01739523       2.86270807
H        6.15278096       6.05276397       1.49614805
3
Lattice="6.35016 0.0 0.0 0.0 6.35016 0.0 0.0 0.0 6.35016" Properties=species:S:1:pos:R:3 pbc="T T T"
O        0.26342540       0.21785354       2.10619992
H        6.33096480       5.99630368       2.83715433
H        6.17735856       6.02485597       1.48901454
3
Lattice="6.35016 0.0 0.0 0.0 6.35016 0.0 0.0 0.0 6.35016" Properties=species:S:1:pos:R:3 pbc="T T T"
O        0.26232574       0.21391092       2.11091092
H        6.32936500       5.97611634       2.81451004
H        6.19959637       5.99473818       1.47508699
3
Lattice="6.35016 0.0 0.0 0.0 6.35016 0.0 0.0 0.0 6.35016" Properties=species:S:1:pos:R:3 pbc="T T T"
O        0.26125301       0.20999789       2.11569011
H        6.32831539       5.95610901       2.79608600
H        6.22085906       5.96396067       1.45583908
3
Lattice="6.35016 0.0 0.0 0.0 6.35016 0.0 0.0 0.0 6.35016" Properties=species:S:1:pos:R:3 pbc="T T T"
O        0.26014612       0.20603710       2.12036370
H        6.32745970       5.93570481       2.78273263
H        6.24248002       5.93434803       1.43319466
3
Lattice="6.35016 0.0 0.0 0.0 6.35016 0.0 0.0 0.0 6.35016" Properties=species:S:1:pos:R:3 pbc="T T T"
O        0.25895337       0.20193814       2.12479313
H        6.32658205       5.91463923       2.77472064
H        6.26549973       5.90761633       1.40910831
3
Lattice="6.35016 0.0 0.0 0.0 6.35016 0.0 0.0 0.0 6.35016" Properties=species:S:1:pos:R:3 pbc="T T T"
O        0.25763482       0.19760568       2.12888644
H        6.32564152       5.89302875       2.77175079
H        6.29060153       5.88516884       1.38534576
3
Lattice="6.35016 0.0 0.0 0.0 6.35016 0.0 0.0 0.0 6.35016" Properties=species:S:1:pos:R:3 pbc="T T T"
O        0.25616044       0.19294612       2.13259951
H        6.32475796       5.87135374       2.77306636
H        6.31813627       5.86802804       1.36337453
3
Lattice="6.35016 0.0 0.0 0.0 6.35016 0.0 0.0 0.0 6.35016" Properties=species:S:1:pos:R:3 pbc="T T T"
O        0.25451060       0.18787171       2.13592496
H        6.32415775       5.85034615       2.77763085
H        6.34819894       5.85686395       1.34435846
3
Lattice="6.35016 0.0 0.0 0.0 6.35016 0.0 0.0 0.0 6.35016" Properties=species:S:1:pos:R:3 pbc="T T T"
O        0.25267522       0.18230922       2.13887854
H        6.32410085       5.83082721       2.78431732
H        0.03053087       5.85203357       1.32916640
3
Lattice="6.35016 0.0 0.0 0.0 6.35016 0.0 0.0 0.0 6.35016" Properties=species:S:1:pos:R:3 pbc="T T T"
O        0.25065358       0.17620392       2.14149144
H        6.32482496       5.81357389       2.79204260
H        0.06521779       5.85361629       1.31838866
3
Lattice="6.35016 0.0 0.0 0.0 6.35016 0.0 0.0 0.0 6.35016" Properties=species:S:1:pos:R:3 pbc="T T T"
O        0.24845541       0.16952876       2.14380252
H        6.32651131       5.79921548       2.79986511
H        0.10177281       5.86143372       1.31233543
3
Lattice="6.35016 0.0 0.0 0.0 6.35016 0.0 0.0 0.0 6.35016" Properties=species:S:1:pos:R:3 pbc="T T T"
O        0.24609759       0.16228240       2.14586074
H        6.32927439       5.78819516       2.80700917
H        0.13980195       5.87504224       1.31100685
3
Lattice="6.35016 0.0 0.0 0.0 6.35016 0.0 0.0 0.0 6.35016" Properties=species:S:1:pos:R:3 pbc="T T T"
O        0.24360369       0.15449711       2.14772235
H        6.33314779       5.78072388       2.81290853
H        0.17888706       5.89372764       1.31405633
3
Lattice="6.35016 0.0 0.0 0.0 6.35016 0.0 0.0 0.0 6.35016" Properties=species:S:1:pos:R:3 pbc="T T T"
O        0.24100203       0.14623701       2.14945867
H        6.33809076       5.77677453       2.81719571
H        0.21862490       5.91648287       1.32072063
3
Lattice="6.35016 0.0 0.0 0.0 6.35016 0.0 0.0 0.0 6.35016" Properties=species:S:1:pos:R:3 pbc="T T T"
O        0.23831992       0.13760092       2.15115690
H        6.34399158       5.77607455       2.81971381
H        0.25868526       5.94199851       1.32975989
3
Lattice="6.35016 0.0 0.0 0.0 6.35016 0.0 0.0 0.0 6.35016" Properties=species:S:1:pos:R:3 pbc="T T T"
O        0.23557976       0.12871971       2.15292053
H        0.00051214       5.77809307       2.82053006
H        0.29889041       5.96870659       1.33945531
3
Lattice="6.35016 0.0 0.0 0.0 6.35016 0.0 0.0 0.0 6.35016" Properties=species:S:1:pos:R:3 pbc="T T T"
O        0.23279318       0.11974757       2.15485923
H        0.00773773       5.78203741       2.81994438
H        0.33928244       5.99493053       1.34775516
3
Lattice="6.35016 0.0 0.0 0.0 6.35016 0.0 0.0 0.0 6.35016" Properties=species:S:1:pos:R:3 pbc="T T T"
O        0.22996012       0.11084465       2.15706566
H        0.01522857       5.78685750       2.81849261
H        0.38014058       6.01915562       1.35265088
3
Lattice="6.35016 0.0 0.0 0.0 6.35016 0.0 0.0 0.0 6.35016" Properties=species:S:1:pos:R:3 pbc="T T T"
O        0.22707340       0.10215452       2.15957886
H        0.02268480       5.79128623       2.81692685
H        0.42187999       6.04036541       1.35276989
3
Lattice="6.35016 0.0 0.0 0.0 6.35016 0.0 0.0 0.0 6.35016" Properties=species:S:1:pos:R:3 pbc="T T T"
O        0.22413125       0.09378437       2.16235426
H        0.02982435       5.79392853       2.81613930
H        0.46480891       6.05825013       1.34792427
3
Lattice="6.35016 0.0 0.0 0.0 6.35016 0.0 0.0 0.0 6.35016" Properties=species:S:1:pos:R:3 pbc="T T T"
O        0.22114877       0.08579739       2.16526587
H        0.03643906       5.79343493       2.81701010
H        0.50889700       6.07315211       1.33924862
3
Lattice="6.35016 0.0 0.0 0.0 6.35016 0.0 0.0 0.0 6.35016" Properties=species:S:1:pos:R:3 pbc="T T T"
O        0.21815956       0.07821543       2.16814053
H        0.04245565       5.78873023       2.82018994
H        0.55368137       6.08579465       1.32884839
3
Lattice="6.35016 0.0 0.0 0.0 6.35016 0.0 0.0 0.0 6.35016" Properties=species:S:1:pos:R:3 pbc="T T T"
O        0.21520660       0.07102565       2.17081185
H        0.04797946       5.77924264       2.82588076
H        0.59837037       6.09695893       1.31917989
3
Lattice="6.35016 0.0 0.0 0.0 6.35016 0.0 0.0 0.0 6.35016" Properties=species:S:1:pos:R:3 pbc="T T T"
O        0.21233119       0.06418481       2.17316052
H        0.05329511       5.76503156       2.83371629
H        0.64202410       6.10727705       1.31251743
3
Lattice="6.35016 0.0 0.0 0.0 6.35016 0.0 0.0 0.0 6.35016" Properties=species:S:1:pos:R:3 pbc="T T T"
O        0.20956487       0.05762567       2.17512926
H        0.05881486       5.74675306       2.84281378
H        0.68372509       6.11716882       1.31066375
3
Lattice="6.35016 0.0 0.0 0.0 6.35016 0.0 0.0 0.0 6.35016" Properties=species:S:1:pos:R:3 pbc="T T T"
O        0.20692854       0.05126605       2.17671559
H        0.06499719       5.72548892       2.85196748
H        0.72268231       6.12686399       1.31487067
3
Lattice="6.35016 0.0 0.0 0.0 6.35016 0.0 0.0 0.0 6.35016" Properties=species:S:1:pos:R:3 pbc="T T T"
O        0.20443369       0.04502098       2.17795432
H        0.07226412       5.70251817       2.85988987
H        0.75828023       6.13645114       1.32587029
